#gt10.kmer27.(2720000.2730000).V107.E150.mincyc100.e1.0
#construct-flow-graph.py -o graphs-g10-w10000-k27-cyc/ -g 10 -w 10000 -k 27 --mincycles 1 --nreads 5 --readlength 1000 --distribution lognormal11 --pdf
#kmersize=27
#windowsize=10000
#acyclic=False
#mincycles=1
#distribution=lognormal11
#ngenomes=10
#nreads=5
#readlength=1000
#outdir=graphs-g10-w10000-k27-cyc/
#pdf=True
#erroreps=1.0
#unique source is 0, unique sink is 1
#genomes: GCA_000005845.2_ASM584v2.fna GCA_000006665.1_ASM666v1.fna GCA_000007445.1_ASM744v1.fna GCA_000008865.2_ASM886v2.fna GCA_000009565.2_ASM956v1.fna GCA_000010245.1_ASM1024v1.fna GCA_000010385.1_ASM1038v1.fna GCA_000010485.1_ASM1048v1.fna GCA_000010745.1_ASM1074v1.fna GCA_000010765.1_ASM1076v1.fna 
# ground truth paths, in the format 'weight node1 node2 node3 ... '
#T 22 0 1345 1346 9976 1 
#T 19 0 1 
#T 130 0 27961 27962 27967 28000 28060 28105 28156 28191 28201 28258 28315 28345 28363 28393 28432 28486 28495 28522 28555 28627 28666 28774 28801 28837 28843 28924 28975 29002 29017 29047 29059 29089 29116 29140 29167 29254 29281 29327 29354 29378 29519 29528 29618 29623 29705 29759 29801 29877 29904 29906 1 
#T 143 0 39901 1 
#T 24 0 49876 1 
#T 22 0 1346 9976 51220 1 
#T 44 0 27962 27967 51252 28000 28060 51296 28105 28156 51330 28191 28201 51386 28258 28315 51415 28345 28363 51444 28393 28432 51497 28486 28495 51523 28522 28555 51594 28627 28666 51701 28774 28801 51736 28837 28843 51816 28924 28975 51842 29002 29017 51871 29047 29059 51900 29089 51926 29116 29140 51952 29167 29254 51978 29281 29327 52004 29354 29378 52144 29519 29528 52233 29618 29623 52314 29705 29759 52355 29801 29877 52381 29904 29906 53403 53404 1 
#T 107 0 70386 1 
#T 10 0 53403 53404 80359 1 
#T 79 0 82615 82627 82657 82689 82716 82736 82778 82781 82808 82819 82846 82854 82884 82911 82934 82657 82689 83010 82716 82736 83051 82778 82781 83077 82808 82819 83103 82846 82854 83132 82884 83158 82911 82934 82615 82627 1 
# subpath constraints, in the format 'node1 node2 node3 ... '
# 0 subpath constraints for genome
#S 1346 9976 
#S 1346 9976 
#S 1346 9976 
#S 0 1345 1346 9976 
#S 1346 9976 
# 1 subpath constraints for genome
#S 0 1 
#S 0 1 
#S 0 1 
#S 0 1 
#S 0 1 
# 2 subpath constraints for genome
#S 0 27961 
#S 0 27961 
#S 0 27961 
#S 0 27961 
#S 0 27961 
# 3 subpath constraints for genome
#S 0 39901 
#S 0 39901 
#S 0 39901 
#S 0 39901 
#S 0 39901 
# 4 subpath constraints for genome
#S 0 49876 
#S 0 49876 
#S 0 49876 
#S 0 49876 
#S 0 49876 
# 5 subpath constraints for genome
#S 1346 9976 
#S 1346 9976 
#S 9976 51220 
#S 1346 9976 51220 
#S 9976 51220 
# 6 subpath constraints for genome
#S 53404 1 
#S 53404 1 
#S 53404 1 
#S 53404 1 
#S 53404 1 
# 7 subpath constraints for genome
#S 0 70386 
#S 0 70386 
#S 0 70386 
#S 0 70386 
#S 0 70386 
# 8 subpath constraints for genome
#S 0 53403 
#S 53404 80359 
#S 0 53403 
#S 0 53403 
#S 0 53403 
# 9 subpath constraints for genome
#S 82627 1 
#S 82627 1 
#S 82627 1 
#S 82934 82657 82689 83010 82716 82736 83051 82778 82781 83077 82808 82819 83103 82846 82854 83132 82884 83158 82911 82934 82615 82627 1 
#S 0 82615 
150
1345 1346 29
1346 9976 43
9976 1 22
9976 51220 25
27961 27962 147
27962 27967 191
27967 28000 124
27967 51252 41
28000 28060 169
28060 28105 127
28060 51296 44
28105 28156 194
28156 28191 143
28156 51330 41
28191 28201 182
28201 28258 142
28201 51386 42
28258 28315 191
28315 28345 142
28315 51415 48
28345 28363 154
28363 28393 120
28363 51444 53
28393 28432 166
28432 28486 111
28432 51497 39
28486 28495 182
28495 28522 118
28495 51523 39
28522 28555 157
28555 28627 148
28555 51594 33
28627 28666 158
28666 28774 127
28666 51701 42
28774 28801 177
28801 28837 120
28801 51736 46
28837 28843 165
28843 28924 140
28843 51816 32
28924 28975 177
28975 29002 132
28975 51842 46
29002 29017 171
29017 29047 111
29017 51871 53
29047 29059 181
29059 29089 109
29059 51900 51
29089 29116 136
29089 51926 45
29116 29140 176
29140 29167 137
29140 51952 38
29167 29254 170
29254 29281 127
29254 51978 39
29281 29327 184
29327 29354 144
29327 52004 52
29354 29378 171
29378 29519 137
29378 52144 42
29519 29528 169
29528 29618 125
29528 52233 47
29618 29623 163
29623 29705 123
29623 52314 40
29705 29759 160
29759 29801 117
29759 52355 50
29801 29877 151
29877 29904 122
29877 52381 44
29904 29906 172
29906 1 155
29906 53403 45
39901 1 140
49876 1 28
51220 1 31
51252 28000 51
51296 28105 41
51330 28191 50
51386 28258 46
51415 28345 50
51444 28393 34
51497 28486 53
51523 28522 43
51594 28627 50
51701 28774 50
51736 28837 51
51816 28924 48
51842 29002 49
51871 29047 48
51900 29089 50
51926 29116 34
51952 29167 44
51978 29281 50
52004 29354 42
52144 29519 38
52233 29618 48
52314 29705 42
52355 29801 42
52381 29904 55
53403 53404 54
53404 1 46
53404 80359 11
70386 1 101
80359 1 14
82615 82627 167
82627 82657 75
82627 1 80
82657 82689 169
82689 82716 74
82689 83010 87
82716 82736 166
82736 82778 82
82736 83051 81
82778 82781 151
82781 82808 85
82781 83077 90
82808 82819 165
82819 82846 92
82819 83103 68
82846 82854 148
82854 82884 82
82854 83132 74
82884 82911 83
82884 83158 80
82911 82934 160
82934 82657 90
82934 82615 74
83010 82716 83
83051 82778 98
83077 82808 84
83103 82846 80
83132 82884 89
83158 82911 84
0 1346 27
0 27962 43
0 1345 18
0 1 18
0 27961 123
0 39901 131
0 49876 23
0 70386 125
0 53403 11
0 82615 80