#gt10.kmer27.(520000.530000).V150.E207.mincyc1.e1.0
#construct-flow-graph.py -o graphs-g10-w10000-k27-cyc/ -g 10 -w 10000 -k 27 --mincycles 1 --nreads 5 --readlength 1000 --distribution lognormal11 --pdf
#kmersize=27
#windowsize=10000
#acyclic=False
#mincycles=1
#distribution=lognormal11
#ngenomes=10
#nreads=5
#readlength=1000
#outdir=graphs-g10-w10000-k27-cyc/
#pdf=True
#erroreps=1.0
#unique source is 0, unique sink is 1
#genomes: GCA_000005845.2_ASM584v2.fna GCA_000006665.1_ASM666v1.fna GCA_000007445.1_ASM744v1.fna GCA_000008865.2_ASM886v2.fna GCA_000009565.2_ASM956v1.fna GCA_000010245.1_ASM1024v1.fna GCA_000010385.1_ASM1038v1.fna GCA_000010485.1_ASM1048v1.fna GCA_000010745.1_ASM1074v1.fna GCA_000010765.1_ASM1076v1.fna 
# ground truth paths, in the format 'weight node1 node2 node3 ... '
#T 63 0 2 129 156 525 561 570 615 648 681 778 792 819 978 1023 1164 1191 1288 1341 1413 1452 1455 1485 1488 6914 6922 6914 6922 9967 1 
#T 33 0 9968 9969 10089 10132 10242 10269 10899 10936 11326 11359 11401 11428 11575 11602 11617 11671 11698 11725 11788 11815 11877 11904 12031 15948 15975 19923 1 
#T 12 0 27814 9968 9969 10089 27856 10132 10242 27882 10269 10899 27918 10936 11326 27950 11359 11401 27976 11428 11575 28002 11602 11617 28055 11671 11698 28081 11725 11788 28107 11815 11877 28133 11904 12031 1 
#T 8 0 9969 10089 10132 10242 10269 10899 10936 11326 11359 11401 11428 11575 11602 11617 11671 11698 11725 11788 11815 11877 11904 12031 15948 28198 15975 19923 28218 1 
#T 57 0 1 
#T 20 0 778 792 819 978 1023 1164 1191 1288 1341 1413 1452 1455 1485 1488 6914 6922 6914 6922 9967 38969 1 
#T 2 0 40859 40860 41141 41168 41881 41908 42091 42134 42811 42833 43218 43245 43376 43403 43407 43434 43500 43527 43689 43716 43732 43759 44096 44123 44648 44675 44687 44714 44945 44972 44979 45006 45040 45067 45073 45100 45974 46001 46412 46439 46874 46901 48638 48665 48848 48875 48944 1 
#T 1 0 58919 1 
#T 42 0 67407 2 129 67433 156 525 67468 561 570 67512 615 648 67544 681 778 792 67570 819 978 67614 1023 1164 67640 1191 1288 67692 1341 1413 67730 1452 1455 67759 1485 1488 1 
#T 40 0 40860 41141 67785 41168 41881 67811 41908 42091 67853 42134 42811 67875 42833 43218 67901 43245 43376 67927 43403 43407 67953 43434 43500 67979 43527 43689 68005 43716 43732 68031 43759 44096 68057 44123 44648 68083 44675 44687 68109 44714 44945 68135 44972 44979 68161 45006 45040 68187 45067 45073 68213 45100 45974 68239 46001 46412 68265 46439 46874 68291 46901 48638 68317 48665 48848 68343 48875 48944 70232 1 
# subpath constraints, in the format 'node1 node2 node3 ... '
# 0 subpath constraints for genome
#S 1488 6914 
#S 1488 6914 
#S 6922 6914 6922 9967 
#S 6922 9967 
#S 1488 6914 
# 1 subpath constraints for genome
#S 12031 15948 15975 19923 
#S 12031 15948 15975 
#S 15975 19923 1 
#S 12031 15948 
#S 11428 11575 11602 11617 11671 11698 11725 11788 11815 11877 11904 12031 15948 
# 2 subpath constraints for genome
#S 10132 10242 27882 10269 10899 27918 10936 11326 
#S 0 27814 
#S 10269 10899 27918 10936 11326 27950 11359 11401 27976 11428 11575 28002 11602 11617 28055 
#S 0 27814 
#S 0 27814 
# 3 subpath constraints for genome
#S 12031 15948 
#S 15975 19923 
#S 11698 11725 11788 11815 11877 11904 12031 15948 
#S 15975 19923 28218 
#S 12031 15948 
# 4 subpath constraints for genome
#S 0 1 
#S 0 1 
#S 0 1 
#S 0 1 
#S 0 1 
# 5 subpath constraints for genome
#S 6922 9967 
#S 9967 38969 
#S 6922 9967 38969 
#S 6914 6922 6914 
#S 6922 9967 38969 
# 6 subpath constraints for genome
#S 0 40859 40860 41141 
#S 0 40859 
#S 43759 44096 44123 44648 44675 44687 44714 44945 
#S 46439 46874 46901 48638 
#S 46901 48638 48665 48848 
# 7 subpath constraints for genome
#S 0 58919 
#S 0 58919 
#S 0 58919 
#S 0 58919 
#S 0 58919 
# 8 subpath constraints for genome
#S 0 67407 
#S 1413 67730 1452 1455 67759 1485 
#S 0 67407 
#S 0 67407 
#S 0 67407 
# 9 subpath constraints for genome
#S 43527 43689 68005 43716 43732 68031 43759 44096 68057 44123 44648 
#S 41168 41881 67811 41908 42091 67853 42134 42811 
#S 43527 43689 68005 43716 43732 68031 43759 44096 68057 44123 44648 
#S 43403 43407 67953 43434 43500 67979 43527 43689 68005 43716 43732 68031 43759 44096 68057 44123 44648 
#S 44123 44648 68083 44675 44687 68109 44714 44945 68135 44972 44979 68161 45006 45040 68187 45067 45073 68213 45100 45974 
207
2 129 101
129 156 61
129 67433 37
156 525 113
525 561 67
525 67468 30
561 570 100
570 615 67
570 67512 42
615 648 107
648 681 66
648 67544 46
681 778 99
778 792 106
792 819 85
792 67570 46
819 978 132
978 1023 103
978 67614 40
1023 1164 171
1164 1191 98
1164 67640 54
1191 1288 128
1288 1341 84
1288 67692 44
1341 1413 134
1413 1452 89
1413 67730 45
1452 1455 113
1455 1485 93
1455 67759 42
1485 1488 123
1488 1 40
1488 6914 80
6914 6922 180
6922 6914 71
6922 9967 79
9967 1 59
9967 38969 21
9968 9969 48
9969 10089 53
10089 10132 43
10089 27856 8
10132 10242 57
10242 10269 41
10242 27882 12
10269 10899 46
10899 10936 38
10899 27918 10
10936 11326 55
11326 11359 44
11326 27950 10
11359 11401 59
11401 11428 40
11401 27976 8
11428 11575 47
11575 11602 38
11575 28002 13
11602 11617 60
11617 11671 41
11617 28055 10
11671 11698 50
11698 11725 44
11698 28081 13
11725 11788 53
11788 11815 36
11788 28107 9
11815 11877 57
11877 11904 39
11877 28133 11
11904 12031 45
12031 15948 44
12031 1 8
15948 15975 32
15948 28198 5
15975 19923 37
19923 1 33
19923 28218 13
27814 9968 13
27856 10132 9
27882 10269 11
27918 10936 13
27950 11359 9
27976 11428 11
28002 11602 11
28055 11671 15
28081 11725 12
28107 11815 8
28133 11904 15
28198 15975 5
28218 1 8
38969 1 19
40859 40860 2
40860 41141 31
41141 41168 1
41141 67785 45
41168 41881 45
41881 41908 3
41881 67811 41
41908 42091 52
42091 42134 4
42091 67853 40
42134 42811 35
42811 42833 1
42811 67875 42
42833 43218 48
43218 43245 4
43218 67901 38
43245 43376 50
43376 43403 1
43376 67927 37
43403 43407 36
43407 43434 4
43407 67953 42
43434 43500 39
43500 43527 3
43500 67979 36
43527 43689 42
43689 43716 1
43689 68005 36
43716 43732 42
43732 43759 2
43732 68031 45
43759 44096 50
44096 44123 1
44096 68057 38
44123 44648 35
44648 44675 2
44648 68083 35
44675 44687 37
44687 44714 1
44687 68109 49
44714 44945 45
44945 44972 1
44945 68135 40
44972 44979 42
44979 45006 1
44979 68161 42
45006 45040 42
45040 45067 4
45040 68187 40
45067 45073 31
45073 45100 1
45073 68213 38
45100 45974 40
45974 46001 3
45974 68239 41
46001 46412 42
46412 46439 1
46412 68265 30
46439 46874 51
46874 46901 2
46874 68291 36
46901 48638 34
48638 48665 2
48638 68317 46
48665 48848 27
48848 48875 4
48848 68343 37
48875 48944 40
48944 1 2
48944 70232 47
58919 1 1
67407 2 44
67433 156 32
67468 561 46
67512 615 41
67544 681 48
67570 819 44
67614 1023 53
67640 1191 45
67692 1341 35
67730 1452 47
67759 1485 33
67785 41168 37
67811 41908 34
67853 42134 36
67875 42833 43
67901 43245 42
67927 43403 43
67953 43434 46
67979 43527 45
68005 43716 35
68031 43759 57
68057 44123 46
68083 44675 41
68109 44714 45
68135 44972 41
68161 45006 43
68187 45067 40
68213 45100 36
68239 46001 25
68265 46439 42
68291 46901 33
68317 48665 35
68343 48875 46
70232 1 47
0 2 59
0 9968 43
0 9969 7
0 778 20
0 40860 34
0 27814 14
0 1 46
0 40859 3
0 58919 1
0 67407 45