#gt10.kmer27.(620000.630000).V130.E180.mincyc100.e1.0
#construct-flow-graph.py -o graphs-g10-w10000-k27-cyc/ -g 10 -w 10000 -k 27 --mincycles 1 --nreads 5 --readlength 1000 --distribution lognormal11 --pdf
#kmersize=27
#windowsize=10000
#acyclic=False
#mincycles=1
#distribution=lognormal11
#ngenomes=10
#nreads=5
#readlength=1000
#outdir=graphs-g10-w10000-k27-cyc/
#pdf=True
#erroreps=1.0
#unique source is 0, unique sink is 1
#genomes: GCA_000005845.2_ASM584v2.fna GCA_000006665.1_ASM666v1.fna GCA_000007445.1_ASM744v1.fna GCA_000008865.2_ASM886v2.fna GCA_000009565.2_ASM956v1.fna GCA_000010245.1_ASM1024v1.fna GCA_000010385.1_ASM1038v1.fna GCA_000010485.1_ASM1048v1.fna GCA_000010745.1_ASM1074v1.fna GCA_000010765.1_ASM1076v1.fna 
# ground truth paths, in the format 'weight node1 node2 node3 ... '
#T 25 0 778 779 9976 1 
#T 6 0 9977 19644 19951 1 
#T 83 0 27054 27075 29013 29014 29070 29075 29127 29135 29162 29174 29220 29286 29326 29331 29358 29387 29414 29484 29511 29619 29658 29668 29748 29793 29820 29823 29862 29906 1 
#T 67 0 30233 9977 19644 1 
#T 2 0 1 
#T 5 0 779 9976 40985 1 
#T 13 0 50960 1 
#T 201 0 60935 1 
#T 5 0 60936 61061 61088 62367 62394 62699 62727 62829 62919 63373 63400 63648 63675 63699 63726 63759 63786 63819 63846 63882 63909 64094 64121 64473 64500 64645 64672 64732 64759 64866 64893 64953 64980 65112 65139 65175 65202 65321 65348 65380 65407 66328 66355 66579 66606 66615 66669 66719 66746 66791 66818 66836 1 
#T 19 0 29013 29014 71999 29070 29075 72050 29127 29135 72076 29162 29174 72121 29220 29286 72160 29326 29331 72186 29358 29387 72212 29414 29484 72238 29511 29619 72276 29658 29668 72355 29748 29793 72381 29820 29823 72419 29862 29906 27054 27075 60936 61061 74557 61088 62367 74583 62394 62699 74610 62727 62829 74699 62919 63373 74725 63400 63648 74751 63675 63699 74777 63726 63759 74803 63786 63819 74829 63846 63882 74855 63909 64094 74881 64121 64473 74907 64500 64645 74933 64672 64732 74959 64759 64866 74985 64893 64953 75011 64980 65112 75037 65139 65175 75063 65202 65321 75089 65348 65380 75115 65407 66328 75141 66355 66579 75167 66606 66615 75220 66669 66719 75246 66746 66791 75272 66818 66836 75284 1 
# subpath constraints, in the format 'node1 node2 node3 ... '
# 0 subpath constraints for genome
#S 779 9976 
#S 779 9976 
#S 779 9976 
#S 779 9976 
#S 779 9976 
# 1 subpath constraints for genome
#S 9977 19644 
#S 9977 19644 19951 
#S 9977 19644 
#S 9977 19644 
#S 9977 19644 
# 2 subpath constraints for genome
#S 27075 29013 
#S 0 27054 
#S 0 27054 27075 29013 
#S 27075 29013 
#S 0 27054 
# 3 subpath constraints for genome
#S 9977 19644 
#S 9977 19644 
#S 9977 19644 
#S 9977 19644 
#S 9977 19644 
# 4 subpath constraints for genome
#S 0 1 
#S 0 1 
#S 0 1 
#S 0 1 
#S 0 1 
# 5 subpath constraints for genome
#S 779 9976 
#S 779 9976 
#S 779 9976 
#S 779 9976 
#S 779 9976 40985 
# 6 subpath constraints for genome
#S 0 50960 
#S 0 50960 
#S 0 50960 
#S 0 50960 
#S 0 50960 
# 7 subpath constraints for genome
#S 0 60935 
#S 0 60935 
#S 0 60935 
#S 0 60935 
#S 0 60935 
# 8 subpath constraints for genome
#S 66836 1 
#S 66836 1 
#S 66836 1 
#S 61088 62367 
#S 61088 62367 62394 62699 62727 62829 62919 63373 
# 9 subpath constraints for genome
#S 27075 60936 61061 74557 61088 62367 
#S 27075 60936 61061 74557 61088 62367 
#S 65202 65321 75089 65348 65380 75115 65407 66328 
#S 29906 27054 27075 60936 
#S 29668 72355 29748 29793 72381 29820 29823 72419 29862 29906 27054 27075 60936 
180
778 779 18
779 9976 31
9976 1 27
9976 40985 5
9977 19644 81
19644 1 56
19644 19951 8
19951 1 8
27054 27075 108
27075 29013 83
27075 60936 22
29013 29014 107
29014 29070 76
29014 71999 19
29070 29075 108
29075 29127 81
29075 72050 15
29127 29135 111
29135 29162 73
29135 72076 13
29162 29174 108
29174 29220 100
29174 72121 16
29220 29286 100
29286 29326 85
29286 72160 16
29326 29331 111
29331 29358 94
29331 72186 21
29358 29387 97
29387 29414 75
29387 72212 16
29414 29484 107
29484 29511 85
29484 72238 19
29511 29619 95
29619 29658 79
29619 72276 17
29658 29668 92
29668 29748 82
29668 72355 15
29748 29793 120
29793 29820 87
29793 72381 18
29820 29823 111
29823 29862 94
29823 72419 19
29862 29906 110
29906 1 60
29906 27054 29
30233 9977 53
40985 1 2
50960 1 16
60935 1 219
60936 61061 19
61061 61088 3
61061 74557 21
61088 62367 29
62367 62394 6
62367 74583 11
62394 62699 19
62699 62727 5
62699 74610 16
62727 62829 36
62829 62919 8
62829 74699 17
62919 63373 30
63373 63400 5
63373 74725 17
63400 63648 24
63648 63675 5
63648 74751 14
63675 63699 36
63699 63726 9
63699 74777 23
63726 63759 21
63759 63786 8
63759 74803 17
63786 63819 12
63819 63846 4
63819 74829 16
63846 63882 29
63882 63909 4
63882 74855 18
63909 64094 16
64094 64121 5
64094 74881 25
64121 64473 22
64473 64500 4
64473 74907 23
64500 64645 14
64645 64672 5
64645 74933 20
64672 64732 17
64732 64759 5
64732 74959 20
64759 64866 23
64866 64893 4
64866 74985 21
64893 64953 20
64953 64980 10
64953 75011 20
64980 65112 35
65112 65139 5
65112 75037 21
65139 65175 18
65175 65202 4
65175 75063 20
65202 65321 30
65321 65348 6
65321 75089 22
65348 65380 23
65380 65407 4
65380 75115 14
65407 66328 15
66328 66355 6
66328 75141 23
66355 66579 18
66579 66606 3
66579 75167 16
66606 66615 22
66615 66669 8
66615 75220 13
66669 66719 23
66719 66746 7
66719 75246 11
66746 66791 20
66791 66818 4
66791 75272 17
66818 66836 31
66836 1 2
66836 75284 19
71999 29070 18
72050 29127 25
72076 29162 21
72121 29220 15
72160 29326 23
72186 29358 19
72212 29414 25
72238 29511 21
72276 29658 20
72355 29748 18
72381 29820 21
72419 29862 17
74557 61088 23
74583 62394 20
74610 62727 21
74699 62919 23
74725 63400 14
74751 63675 16
74777 63726 12
74803 63786 16
74829 63846 22
74855 63909 17
74881 64121 14
74907 64500 14
74933 64672 24
74959 64759 13
74985 64893 20
75011 64980 18
75037 65139 24
75063 65202 23
75089 65348 27
75115 65407 15
75141 66355 14
75167 66606 24
75220 66669 14
75246 66746 10
75272 66818 24
75284 1 17
0 9977 6
0 779 3
0 60936 4
0 778 26
0 27054 69
0 30233 61
0 1 1
0 50960 13
0 60935 210
0 29013 18