#gt10.kmer27.(4140000.4150000).V70.E100.mincyc1.e1.0
#construct-flow-graph.py -o graphs-g10-w10000-k27-cyc/ -g 10 -w 10000 -k 27 --mincycles 1 --nreads 5 --readlength 1000 --distribution lognormal11 --pdf
#kmersize=27
#windowsize=10000
#acyclic=False
#mincycles=1
#distribution=lognormal11
#ngenomes=10
#nreads=5
#readlength=1000
#outdir=graphs-g10-w10000-k27-cyc/
#pdf=True
#erroreps=1.0
#unique source is 0, unique sink is 1
#genomes: GCA_000005845.2_ASM584v2.fna GCA_000006665.1_ASM666v1.fna GCA_000007445.1_ASM744v1.fna GCA_000008865.2_ASM886v2.fna GCA_000009565.2_ASM956v1.fna GCA_000010245.1_ASM1024v1.fna GCA_000010385.1_ASM1038v1.fna GCA_000010485.1_ASM1048v1.fna GCA_000010745.1_ASM1074v1.fna GCA_000010765.1_ASM1076v1.fna 
# ground truth paths, in the format 'weight node1 node2 node3 ... '
#T 195 0 8866 8867 8888 8921 8927 9083 9110 9137 9227 9272 9398 9425 9482 9554 9569 9625 9680 9707 9764 9791 9976 1 
#T 11 0 1 
#T 28 0 29926 1 
#T 12 0 39901 1 
#T 19 0 49876 1 
#T 12 0 59851 1 
#T 33 0 69826 1 
#T 12 0 8867 8888 69858 8921 8927 70013 9083 70039 9110 70065 9137 9227 70109 9272 9398 70135 9425 9482 70206 9554 9569 70261 9625 9680 70287 9707 9764 70313 9791 9976 79178 1 
#T 35 0 82641 82646 82641 82646 85096 86225 86257 86304 86331 86469 86496 86523 86596 86623 87280 87307 87381 87426 87450 87477 87764 87791 89147 1 
#T 8 0 85096 86225 89178 86257 86304 89204 86331 86469 89230 86496 89256 86523 86596 89282 86623 87280 89308 87307 87381 89352 87426 87450 89378 87477 87764 89404 87791 89147 95327 1 
# subpath constraints, in the format 'node1 node2 node3 ... '
# 0 subpath constraints for genome
#S 0 8866 
#S 0 8866 
#S 0 8866 
#S 9791 9976 
#S 0 8866 
# 1 subpath constraints for genome
#S 0 1 
#S 0 1 
#S 0 1 
#S 0 1 
#S 0 1 
# 2 subpath constraints for genome
#S 0 29926 
#S 0 29926 
#S 0 29926 
#S 0 29926 
#S 0 29926 
# 3 subpath constraints for genome
#S 0 39901 
#S 0 39901 
#S 0 39901 
#S 0 39901 
#S 0 39901 
# 4 subpath constraints for genome
#S 0 49876 
#S 0 49876 
#S 0 49876 
#S 0 49876 
#S 0 49876 
# 5 subpath constraints for genome
#S 0 59851 
#S 0 59851 
#S 0 59851 
#S 0 59851 
#S 0 59851 
# 6 subpath constraints for genome
#S 0 69826 
#S 0 69826 
#S 0 69826 
#S 0 69826 
#S 0 69826 
# 7 subpath constraints for genome
#S 9976 79178 
#S 9976 79178 
#S 9976 79178 
#S 9976 79178 
#S 9976 79178 
# 8 subpath constraints for genome
#S 85096 86225 86257 86304 86331 86469 86496 86523 86596 86623 87280 
#S 82646 82641 82646 85096 
#S 87791 89147 
#S 0 82641 
#S 0 82641 82646 82641 
# 9 subpath constraints for genome
#S 89147 95327 
#S 87791 89147 95327 
#S 87791 89147 95327 
#S 89147 95327 
#S 89147 95327 
100
8866 8867 206
8867 8888 174
8888 8921 200
8888 69858 13
8921 8927 193
8927 9083 184
8927 70013 12
9083 9110 197
9083 70039 10
9110 9137 182
9110 70065 10
9137 9227 205
9227 9272 168
9227 70109 8
9272 9398 205
9398 9425 203
9398 70135 12
9425 9482 202
9482 9554 180
9482 70206 14
9554 9569 208
9569 9625 168
9569 70261 10
9625 9680 214
9680 9707 190
9680 70287 11
9707 9764 232
9764 9791 197
9764 70313 12
9791 9976 211
9976 1 197
9976 79178 17
29926 1 23
39901 1 15
49876 1 14
59851 1 12
69826 1 48
69858 8921 11
70013 9083 15
70039 9110 16
70065 9137 10
70109 9272 12
70135 9425 11
70206 9554 9
70261 9625 13
70287 9707 12
70313 9791 14
79178 1 13
82641 82646 63
82646 82641 33
82646 85096 35
85096 86225 45
86225 86257 24
86225 89178 6
86257 86304 29
86304 86331 31
86304 89204 10
86331 86469 44
86469 86496 46
86469 89230 15
86496 86523 46
86496 89256 3
86523 86596 43
86596 86623 51
86596 89282 13
86623 87280 45
87280 87307 26
87280 89308 8
87307 87381 42
87381 87426 43
87381 89352 7
87426 87450 38
87450 87477 27
87450 89378 5
87477 87764 42
87764 87791 38
87764 89404 9
87791 89147 50
89147 1 39
89147 95327 11
89178 86257 10
89204 86331 6
89230 86496 7
89256 86523 8
89282 86623 12
89308 87307 6
89352 87426 10
89378 87477 4
89404 87791 11
95327 1 5
0 8867 17
0 85096 8
0 8866 175
0 1 9
0 29926 22
0 39901 11
0 49876 22
0 59851 16
0 69826 40
0 82641 44