#gt10.kmer27.(2190000.2200000).V59.E86.mincyc6.e1.0
#construct-flow-graph.py -o graphs-g10-w10000-k27-cyc/ -g 10 -w 10000 -k 27 --mincycles 1 --nreads 5 --readlength 1000 --distribution lognormal11 --pdf
#kmersize=27
#windowsize=10000
#acyclic=False
#mincycles=1
#distribution=lognormal11
#ngenomes=10
#nreads=5
#readlength=1000
#outdir=graphs-g10-w10000-k27-cyc/
#pdf=True
#erroreps=1.0
#unique source is 0, unique sink is 1
#genomes: GCA_000005845.2_ASM584v2.fna GCA_000006665.1_ASM666v1.fna GCA_000007445.1_ASM744v1.fna GCA_000008865.2_ASM886v2.fna GCA_000009565.2_ASM956v1.fna GCA_000010245.1_ASM1024v1.fna GCA_000010385.1_ASM1038v1.fna GCA_000010485.1_ASM1048v1.fna GCA_000010745.1_ASM1074v1.fna GCA_000010765.1_ASM1076v1.fna 
# ground truth paths, in the format 'weight node1 node2 node3 ... '
#T 13 0 2 6642 9976 1 
#T 19 0 1 
#T 20 0 29926 1 
#T 52 0 39901 1 
#T 24 0 48005 48008 48042 48055 48082 48086 48094 48008 48042 48055 48134 48082 48086 48005 48008 48042 48055 48082 48086 48094 48008 48042 48055 48134 48082 48086 48094 48008 48042 48055 48134 48082 48086 48094 48008 48042 48134 48082 48086 48094 1 
#T 12 0 52754 2 6642 1 
#T 147 0 62729 1 
#T 34 0 72704 1 
#T 77 0 75565 75641 75687 75698 75725 75782 75809 75836 75842 75941 76115 76123 76181 76214 76262 76277 76310 76314 76359 76363 76409 76469 76496 76595 76644 76850 1 
#T 28 0 85895 75565 75641 85940 75687 75698 85966 75725 75782 85992 75809 86018 75836 75842 86116 75941 86289 76115 76123 86346 76181 76214 86393 76262 76277 86425 76310 76314 86469 76359 76363 86514 76409 76469 86540 76496 76595 86588 76644 76850 92061 1 
# subpath constraints, in the format 'node1 node2 node3 ... '
# 0 subpath constraints for genome
#S 2 6642 
#S 2 6642 
#S 6642 9976 
#S 6642 9976 
#S 6642 9976 
# 1 subpath constraints for genome
#S 0 1 
#S 0 1 
#S 0 1 
#S 0 1 
#S 0 1 
# 2 subpath constraints for genome
#S 0 29926 
#S 0 29926 
#S 0 29926 
#S 0 29926 
#S 0 29926 
# 3 subpath constraints for genome
#S 0 39901 
#S 0 39901 
#S 0 39901 
#S 0 39901 
#S 0 39901 
# 4 subpath constraints for genome
#S 0 48005 
#S 0 48005 
#S 0 48005 48008 48042 48055 48082 48086 48094 48008 48042 48055 48134 48082 48086 48005 48008 48042 48055 48082 48086 48094 48008 48042 48055 48134 48082 48086 48094 48008 48042 48055 48134 48082 48086 48094 48008 48042 
#S 0 48005 
#S 0 48005 
# 5 subpath constraints for genome
#S 2 6642 
#S 2 6642 
#S 2 6642 
#S 0 52754 
#S 0 52754 
# 6 subpath constraints for genome
#S 0 62729 
#S 0 62729 
#S 0 62729 
#S 0 62729 
#S 0 62729 
# 7 subpath constraints for genome
#S 0 72704 
#S 0 72704 
#S 0 72704 
#S 0 72704 
#S 0 72704 
# 8 subpath constraints for genome
#S 76214 76262 76277 76310 76314 76359 76363 76409 76469 76496 76595 76644 76850 1 
#S 76850 1 
#S 76850 1 
#S 76850 1 
#S 76850 1 
# 9 subpath constraints for genome
#S 0 85895 
#S 76850 92061 
#S 0 85895 75565 75641 85940 75687 75698 85966 75725 75782 85992 75809 86018 75836 75842 86116 75941 86289 
#S 76850 92061 
#S 76850 92061 
86
2 6642 27
6642 1 14
6642 9976 19
9976 1 11
29926 1 20
39901 1 47
48005 48008 48
48008 48042 147
48042 48055 126
48042 48134 26
48055 48082 40
48055 48134 69
48082 48086 166
48086 48094 122
48086 48005 28
48094 48008 95
48094 1 28
48134 48082 87
52754 2 14
62729 1 153
72704 1 37
75565 75641 116
75641 75687 78
75641 85940 26
75687 75698 109
75698 75725 86
75698 85966 43
75725 75782 114
75782 75809 89
75782 85992 35
75809 75836 79
75809 86018 34
75836 75842 122
75842 75941 73
75842 86116 41
75941 76115 84
75941 86289 29
76115 76123 112
76123 76181 81
76123 86346 23
76181 76214 94
76214 76262 87
76214 86393 23
76262 76277 97
76277 76310 81
76277 86425 34
76310 76314 89
76314 76359 87
76314 86469 32
76359 76363 90
76363 76409 90
76363 86514 29
76409 76469 98
76469 76496 62
76469 86540 28
76496 76595 120
76595 76644 70
76595 86588 27
76644 76850 103
76850 1 66
76850 92061 30
85895 75565 25
85940 75687 29
85966 75725 38
85992 75809 35
86018 75836 43
86116 75941 33
86289 76115 25
86346 76181 24
86393 76262 31
86425 76310 33
86469 76359 27
86514 76409 26
86540 76496 31
86588 76644 33
92061 1 23
0 2 15
0 1 21
0 29926 15
0 39901 53
0 48005 21
0 52754 14
0 62729 149
0 72704 41
0 75565 63
0 85895 25