#gt10.kmer27.(4160000.4170000).V137.E190.mincyc100.e1.0
#construct-flow-graph.py -o graphs-g10-w10000-k27-cyc/ -g 10 -w 10000 -k 27 --mincycles 1 --nreads 5 --readlength 1000 --distribution lognormal11 --pdf
#kmersize=27
#windowsize=10000
#acyclic=False
#mincycles=1
#distribution=lognormal11
#ngenomes=10
#nreads=5
#readlength=1000
#outdir=graphs-g10-w10000-k27-cyc/
#pdf=True
#erroreps=1.0
#unique source is 0, unique sink is 1
#genomes: GCA_000005845.2_ASM584v2.fna GCA_000006665.1_ASM666v1.fna GCA_000007445.1_ASM744v1.fna GCA_000008865.2_ASM886v2.fna GCA_000009565.2_ASM956v1.fna GCA_000010245.1_ASM1024v1.fna GCA_000010385.1_ASM1038v1.fna GCA_000010485.1_ASM1048v1.fna GCA_000010745.1_ASM1074v1.fna GCA_000010765.1_ASM1076v1.fna 
# ground truth paths, in the format 'weight node1 node2 node3 ... '
#T 16 0 6535 6536 6546 6573 6580 6608 6616 6650 6713 6749 6770 6797 8196 8520 8546 8573 8593 8620 8698 8725 8879 8906 8971 8998 9156 9194 9786 9820 9826 9871 9976 1 
#T 31 0 1 
#T 157 0 29926 1 
#T 77 0 39901 1 
#T 26 0 49876 1 
#T 174 0 58978 58981 59062 59071 59098 59107 59134 59533 59560 59684 59851 1 
#T 19 0 69826 1 
#T 16 0 6536 6546 69852 6573 6580 69878 6608 6616 69910 6650 6713 69945 6749 6770 69971 6797 8196 70299 8520 8546 70325 8573 8593 70351 8620 8698 70377 8725 8879 70403 8906 8971 70429 8998 9156 70465 9194 9786 70497 9820 9826 70541 9871 9976 58978 58981 76447 59062 59071 76473 59098 59107 76499 59134 59533 76525 59560 59684 1 
#T 86 0 82454 82502 82538 82574 82586 82637 82658 82694 82703 82769 82928 82955 83025 83052 83065 83482 83509 83622 83649 84019 84091 84531 84573 84600 84705 84798 84813 84840 84843 84870 84873 84903 85185 85212 85284 85311 85368 85395 85586 85613 85688 85715 85900 85927 86181 86208 86500 1 
#T 7 0 86504 82454 86551 82502 82538 86586 82574 82586 86636 82637 82658 86671 82694 82703 86736 82769 82928 86762 82955 83025 86785 83052 83065 83482 86814 83509 83622 86840 83649 84019 86911 84091 84531 86952 84573 84600 87056 84705 87148 84798 84813 87174 84840 84843 87200 84870 84873 87229 84903 85185 87255 85212 85284 87281 85311 85368 87307 85395 85586 87333 85613 85688 87359 85715 85900 87385 85927 86181 87411 86208 86500 86785 83052 83065 1 
# subpath constraints, in the format 'node1 node2 node3 ... '
# 0 subpath constraints for genome
#S 6536 6546 6573 6580 6608 6616 6650 6713 6749 6770 6797 8196 
#S 8620 8698 8725 8879 8906 8971 8998 9156 9194 9786 
#S 0 6535 
#S 0 6535 
#S 0 6535 
# 1 subpath constraints for genome
#S 0 1 
#S 0 1 
#S 0 1 
#S 0 1 
#S 0 1 
# 2 subpath constraints for genome
#S 0 29926 
#S 0 29926 
#S 0 29926 
#S 0 29926 
#S 0 29926 
# 3 subpath constraints for genome
#S 0 39901 
#S 0 39901 
#S 0 39901 
#S 0 39901 
#S 0 39901 
# 4 subpath constraints for genome
#S 
#S 0 49876 
#S 0 49876 
#S 0 49876 
#S 0 49876 
# 5 subpath constraints for genome
#S 0 58978 58981 59062 
#S 0 58978 
#S 0 58978 
#S 0 58978 
#S 0 58978 
# 6 subpath constraints for genome
#S 0 69826 
#S 0 69826 
#S 0 69826 
#S 0 69826 
#S 0 69826 
# 7 subpath constraints for genome
#S 9976 58978 
#S 6797 8196 70299 8520 8546 70325 8573 8593 70351 8620 8698 70377 
#S 9976 58978 
#S 9976 58978 
#S 59560 59684 
# 8 subpath constraints for genome
#S 0 82454 
#S 0 82454 
#S 0 82454 
#S 0 82454 
#S 84903 85185 85212 85284 85311 85368 85395 85586 85613 85688 85715 85900 85927 86181 
# 9 subpath constraints for genome
#S 86500 86785 
#S 86500 86785 
#S 86500 86785 
#S 86500 86785 
#S 86500 86785 
190
6535 6536 15
6536 6546 33
6546 6573 22
6546 69852 18
6573 6580 40
6580 6608 19
6580 69878 16
6608 6616 30
6616 6650 14
6616 69910 12
6650 6713 37
6713 6749 12
6713 69945 19
6749 6770 40
6770 6797 12
6770 69971 12
6797 8196 29
8196 8520 14
8196 70299 19
8520 8546 38
8546 8573 16
8546 70325 19
8573 8593 39
8593 8620 14
8593 70351 18
8620 8698 36
8698 8725 9
8698 70377 11
8725 8879 35
8879 8906 22
8879 70403 12
8906 8971 28
8971 8998 17
8971 70429 18
8998 9156 34
9156 9194 17
9156 70465 19
9194 9786 27
9786 9820 12
9786 70497 16
9820 9826 29
9826 9871 15
9826 70541 18
9871 9976 17
9976 1 13
9976 58978 16
29926 1 158
39901 1 75
49876 1 23
58978 58981 200
58981 59062 181
58981 76447 11
59062 59071 181
59071 59098 155
59071 76473 11
59098 59107 184
59107 59134 159
59107 76499 12
59134 59533 187
59533 59560 158
59533 76525 15
59560 59684 185
59684 1 18
59684 59851 161
59851 1 173
69826 1 11
69852 6573 15
69878 6608 18
69910 6650 20
69945 6749 12
69971 6797 12
70299 8520 21
70325 8573 17
70351 8620 25
70377 8725 18
70403 8906 11
70429 8998 17
70465 9194 13
70497 9820 16
70541 9871 15
76447 59062 19
76473 59098 20
76499 59134 10
76525 59560 17
82454 82502 79
82454 86551 5
82502 82538 106
82538 82574 85
82538 86586 6
82574 82586 78
82586 82637 81
82586 86636 8
82637 82658 102
82658 82694 83
82658 86671 7
82694 82703 98
82703 82769 83
82703 86736 8
82769 82928 99
82928 82955 90
82928 86762 7
82955 83025 72
83025 83052 83
83025 86785 9
83052 83065 113
83065 83482 96
83065 1 8
83482 83509 83
83482 86814 2
83509 83622 97
83622 83649 79
83622 86840 5
83649 84019 88
84019 84091 95
84019 86911 8
84091 84531 101
84531 84573 84
84531 86952 4
84573 84600 93
84600 84705 87
84600 87056 10
84705 84798 87
84705 87148 6
84798 84813 114
84813 84840 77
84813 87174 4
84840 84843 85
84843 84870 90
84843 87200 4
84870 84873 94
84873 84903 76
84873 87229 6
84903 85185 79
85185 85212 80
85185 87255 11
85212 85284 88
85284 85311 78
85284 87281 8
85311 85368 96
85368 85395 90
85368 87307 11
85395 85586 102
85586 85613 81
85586 87333 10
85613 85688 83
85688 85715 79
85688 87359 6
85715 85900 99
85900 85927 79
85900 87385 2
85927 86181 93
86181 86208 79
86181 87411 8
86208 86500 97
86500 1 86
86500 86785 10
86504 82454 4
86551 82502 8
86586 82574 9
86636 82637 7
86671 82694 3
86736 82769 7
86762 82955 2
86785 83052 9
86814 83509 5
86840 83649 6
86911 84091 10
86952 84573 7
87056 84705 15
87148 84798 8
87174 84840 8
87200 84870 6
87229 84903 7
87255 85212 5
87281 85311 8
87307 85395 5
87333 85613 9
87359 85715 6
87385 85927 9
87411 86208 2
0 6536 19
0 6535 10
0 1 34
0 29926 150
0 39901 82
0 49876 25
0 58978 179
0 69826 10
0 82454 101
0 86504 8