#gt10.kmer27.(1480000.1490000).V191.E263.mincyc1.e1.0
#construct-flow-graph.py -o graphs-g10-w10000-k27-cyc/ -g 10 -w 10000 -k 27 --mincycles 1 --nreads 5 --readlength 1000 --distribution lognormal11 --pdf
#kmersize=27
#windowsize=10000
#acyclic=False
#mincycles=1
#distribution=lognormal11
#ngenomes=10
#nreads=5
#readlength=1000
#outdir=graphs-g10-w10000-k27-cyc/
#pdf=True
#erroreps=1.0
#unique source is 0, unique sink is 1
#genomes: GCA_000005845.2_ASM584v2.fna GCA_000006665.1_ASM666v1.fna GCA_000007445.1_ASM744v1.fna GCA_000008865.2_ASM886v2.fna GCA_000009565.2_ASM956v1.fna GCA_000010245.1_ASM1024v1.fna GCA_000010385.1_ASM1038v1.fna GCA_000010485.1_ASM1048v1.fna GCA_000010745.1_ASM1074v1.fna GCA_000010765.1_ASM1076v1.fna 
# ground truth paths, in the format 'weight node1 node2 node3 ... '
#T 17 0 2 8262 9976 1 
#T 10 0 13717 13738 13717 13738 1 
#T 60 0 1 
#T 26 0 39879 1 
#T 79 0 39880 39907 39966 47662 47770 47797 47824 47851 47871 47910 47949 47976 48072 48149 48201 48249 48318 48387 48456 48463 48490 48510 48776 48816 48874 48918 49167 49205 49245 49293 49335 49444 49461 49488 49497 49524 49572 49653 49671 49701 49827 49854 1 
#T 70 0 51568 2 8262 1 
#T 87 0 61543 1 
#T 117 0 63442 39880 63468 39907 39966 64112 47662 47770 64138 47797 47824 64164 47851 47871 64202 47910 47949 64228 47976 48072 64304 48149 48201 64351 48249 48318 64419 48387 64487 48456 48463 64513 48490 48510 64930 48776 48816 64987 48874 48918 65235 49167 65272 49205 49245 65319 49293 49335 65429 49444 49461 65455 49488 49497 65481 49524 49572 65561 49653 49671 65590 49701 49827 65616 49854 70614 1 
#T 9 0 75534 75543 75570 75586 75833 75840 75888 75918 76025 76047 76131 76141 76233 76238 76296 76545 76599 76980 77007 77149 77192 77238 77311 77328 77355 77382 77430 77436 77468 77682 77709 77769 77820 77949 77976 78061 78088 78112 78160 78175 78228 78253 78325 78352 78365 78430 78451 78492 78552 78579 78586 78670 78751 78769 78796 78860 78878 78892 78973 79050 79088 79135 79162 79184 79241 79242 79269 79277 79316 79319 79346 79382 79409 79439 79489 1 
#T 40 0 80604 75534 75543 80630 75570 75586 80879 75833 75840 80926 75888 75918 81032 76025 76047 81115 76131 76141 81206 76233 76238 81263 76296 76545 81316 76599 76980 81342 77007 77149 81385 77192 77238 81457 77311 77328 81483 77355 77382 81530 77430 77436 81561 77468 77682 81587 77709 77769 81637 77820 77949 81663 77976 78061 81689 78088 78112 81736 78160 78175 81788 78228 78253 81859 78325 81885 78352 78365 81949 78430 78451 81989 78492 78552 82015 78579 78586 82098 78670 82178 78751 78769 82204 78796 78860 82230 78878 78892 82310 78973 79050 82347 79088 79135 82373 79162 79184 82429 79241 79242 82455 79269 79277 82493 79316 79319 82519 79346 79382 82545 79409 79439 82594 79489 88585 1 
# subpath constraints, in the format 'node1 node2 node3 ... '
# 0 subpath constraints for genome
#S 2 8262 
#S 2 8262 
#S 2 8262 
#S 2 8262 
#S 2 8262 
# 1 subpath constraints for genome
#S 0 13717 
#S 13738 1 
#S 0 13717 
#S 0 13717 
#S 13738 1 
# 2 subpath constraints for genome
#S 0 1 
#S 0 1 
#S 0 1 
#S 0 1 
#S 0 1 
# 3 subpath constraints for genome
#S 0 39879 
#S 0 39879 
#S 0 39879 
#S 0 39879 
#S 0 39879 
# 4 subpath constraints for genome
#S 39966 47662 
#S 39966 47662 
#S 39966 47662 47770 47797 47824 47851 47871 47910 47949 47976 
#S 39966 47662 
#S 39966 47662 
# 5 subpath constraints for genome
#S 2 8262 
#S 2 8262 
#S 2 8262 
#S 2 8262 
#S 2 8262 
# 6 subpath constraints for genome
#S 0 61543 
#S 0 61543 
#S 0 61543 
#S 0 61543 
#S 
# 7 subpath constraints for genome
#S 49854 70614 
#S 49854 70614 
#S 48387 64487 48456 48463 64513 48490 48510 64930 48776 48816 64987 48874 48918 65235 49167 65272 49205 49245 65319 49293 49335 
#S 49497 65481 49524 49572 65561 49653 49671 65590 49701 49827 65616 49854 70614 
#S 49854 70614 
# 8 subpath constraints for genome
#S 77820 77949 77976 78061 78088 78112 78160 78175 78228 78253 78325 78352 78365 78430 78451 78492 78552 78579 78586 78670 78751 78769 78796 78860 78878 78892 78973 
#S 0 75534 
#S 0 75534 
#S 79489 1 
#S 79489 1 
# 9 subpath constraints for genome
#S 79489 88585 
#S 79489 88585 
#S 79489 88585 
#S 76296 76545 81316 76599 76980 81342 77007 77149 81385 77192 77238 81457 77311 77328 81483 
#S 76296 76545 81316 76599 76980 81342 77007 77149 81385 77192 77238 81457 77311 77328 81483 77355 77382 81530 77430 77436 81561 77468 77682 
263
2 8262 86
8262 1 65
8262 9976 16
9976 1 13
13717 13738 20
13738 13717 12
13738 1 12
39879 1 29
39880 39907 83
39880 63468 121
39907 39966 175
39966 47662 96
39966 64112 130
47662 47770 202
47770 47797 76
47770 64138 110
47797 47824 182
47824 47851 68
47824 64164 114
47851 47871 171
47871 47910 93
47871 64202 116
47910 47949 200
47949 47976 84
47949 64228 101
47976 48072 179
48072 48149 77
48072 64304 100
48149 48201 204
48201 48249 82
48201 64351 107
48249 48318 185
48318 48387 79
48318 64419 102
48387 48456 84
48387 64487 115
48456 48463 198
48463 48490 85
48463 64513 120
48490 48510 208
48510 48776 68
48510 64930 130
48776 48816 194
48816 48874 84
48816 64987 106
48874 48918 185
48918 49167 75
48918 65235 106
49167 49205 80
49167 65272 104
49205 49245 238
49245 49293 72
49245 65319 112
49293 49335 214
49335 49444 66
49335 65429 112
49444 49461 180
49461 49488 73
49461 65455 128
49488 49497 183
49497 49524 81
49497 65481 122
49524 49572 209
49572 49653 77
49572 65561 115
49653 49671 226
49671 49701 76
49671 65590 121
49701 49827 181
49827 49854 75
49827 65616 105
49854 1 75
49854 70614 125
51568 2 66
61543 1 90
63442 39880 114
63468 39907 132
64112 47662 107
64138 47797 117
64164 47851 116
64202 47910 118
64228 47976 122
64304 48149 101
64351 48249 113
64419 48387 143
64487 48456 136
64513 48490 110
64930 48776 134
64987 48874 129
65235 49167 107
65272 49205 121
65319 49293 125
65429 49444 124
65455 49488 103
65481 49524 113
65561 49653 113
65590 49701 117
65616 49854 112
70614 1 144
75534 75543 59
75543 75570 7
75543 80630 39
75570 75586 47
75586 75833 12
75586 80879 37
75833 75840 58
75840 75888 7
75840 80926 47
75888 75918 48
75918 76025 19
75918 81032 43
76025 76047 53
76047 76131 14
76047 81115 35
76131 76141 42
76141 76233 12
76141 81206 40
76233 76238 58
76238 76296 4
76238 81263 31
76296 76545 48
76545 76599 9
76545 81316 37
76599 76980 58
76980 77007 9
76980 81342 35
77007 77149 49
77149 77192 6
77149 81385 52
77192 77238 57
77238 77311 3
77238 81457 37
77311 77328 54
77328 77355 7
77328 81483 38
77355 77382 48
77382 77430 12
77382 81530 35
77430 77436 44
77436 77468 9
77436 81561 50
77468 77682 59
77682 77709 6
77682 81587 38
77709 77769 57
77769 77820 16
77769 81637 34
77820 77949 43
77949 77976 4
77949 81663 28
77976 78061 61
78061 78088 6
78061 81689 51
78088 78112 48
78112 78160 16
78112 81736 36
78160 78175 47
78175 78228 5
78175 81788 52
78228 78253 35
78253 78325 9
78253 81859 38
78325 78352 5
78325 81885 40
78352 78365 49
78365 78430 11
78365 81949 33
78430 78451 49
78451 78492 12
78451 81989 48
78492 78552 51
78552 78579 9
78552 82015 40
78579 78586 46
78586 78670 7
78586 82098 35
78670 78751 15
78670 82178 32
78751 78769 45
78769 78796 13
78769 82204 31
78796 78860 50
78860 78878 10
78860 82230 52
78878 78892 47
78892 78973 11
78892 82310 44
78973 79050 37
79050 79088 11
79050 82347 45
79088 79135 46
79135 79162 14
79135 82373 37
79162 79184 54
79184 79241 7
79184 82429 39
79241 79242 47
79242 79269 10
79242 82455 47
79269 79277 60
79277 79316 7
79277 82493 45
79316 79319 48
79319 79346 10
79319 82519 40
79346 79382 65
79382 79409 6
79382 82545 37
79409 79439 46
79439 79489 11
79439 82594 42
79489 1 5
79489 88585 36
80604 75534 34
80630 75570 42
80879 75833 29
80926 75888 38
81032 76025 36
81115 76131 45
81206 76233 38
81263 76296 49
81316 76599 54
81342 77007 50
81385 77192 42
81457 77311 44
81483 77355 43
81530 77430 38
81561 77468 35
81587 77709 42
81637 77820 31
81663 77976 39
81689 78088 39
81736 78160 39
81788 78228 38
81859 78325 39
81885 78352 42
81949 78430 46
81989 78492 34
82015 78579 40
82098 78670 45
82178 78751 43
82204 78796 39
82230 78878 40
82310 78973 54
82347 79088 45
82373 79162 40
82429 79241 41
82455 79269 29
82493 79316 46
82519 79346 45
82545 79409 34
82594 79489 28
88585 1 38
0 2 17
0 39880 69
0 13717 15
0 1 59
0 39879 28
0 51568 64
0 61543 86
0 63442 118
0 75534 8
0 80604 41