#gt10.kmer27.(1010000.1020000).V120.E169.mincyc4.e1.0
#construct-flow-graph.py -o graphs-g10-w10000-k27-cyc/ -g 10 -w 10000 -k 27 --mincycles 1 --nreads 5 --readlength 1000 --distribution lognormal11 --pdf
#kmersize=27
#windowsize=10000
#acyclic=False
#mincycles=1
#distribution=lognormal11
#ngenomes=10
#nreads=5
#readlength=1000
#outdir=graphs-g10-w10000-k27-cyc/
#pdf=True
#erroreps=1.0
#unique source is 0, unique sink is 1
#genomes: GCA_000005845.2_ASM584v2.fna GCA_000006665.1_ASM666v1.fna GCA_000007445.1_ASM744v1.fna GCA_000008865.2_ASM886v2.fna GCA_000009565.2_ASM956v1.fna GCA_000010245.1_ASM1024v1.fna GCA_000010385.1_ASM1038v1.fna GCA_000010485.1_ASM1048v1.fna GCA_000010745.1_ASM1074v1.fna GCA_000010765.1_ASM1076v1.fna 
# ground truth paths, in the format 'weight node1 node2 node3 ... '
#T 23 0 2 2434 2461 4151 4178 4893 9554 9976 1 
#T 11 0 11633 11634 12159 12189 13375 13402 14839 14866 16873 16900 16982 17008 19295 19322 19559 19586 19790 19817 19898 19925 19944 1 
#T 7 0 1 
#T 28 0 11634 12159 29955 12189 13375 29981 13402 14839 30007 14866 16873 30033 16900 16982 30057 17008 19295 30083 19322 19559 30109 19586 19790 30135 19817 19898 30161 19925 19944 31826 1 
#T 45 0 36487 36488 2 2434 36935 2461 4151 36961 4178 4893 1 
#T 6 0 36488 2 2434 2461 4151 4178 4893 9554 1 
#T 8 0 36962 37403 37430 37453 37480 37779 37806 38643 38670 38760 38787 38820 38847 39249 39276 39354 39381 40036 40063 40093 40145 40248 40287 40341 40368 40572 40599 40753 40788 41025 41052 41658 41685 41930 42023 42050 42338 42365 44734 44761 46210 46315 46315 46368 46371 46428 46431 46428 46431 46368 46371 1 
#T 32 0 48994 49000 48994 49000 1 
#T 28 0 56902 57232 57259 57452 57485 36962 37403 37430 37453 37480 37779 57647 37806 38643 38670 38760 38787 38820 38847 39249 39276 39354 39381 40036 57673 40063 40093 57724 40145 40248 57762 40287 40341 40368 40572 57788 40599 40753 57822 40788 41025 41052 41658 57848 41685 41930 42023 57874 42050 42338 57900 42365 44734 57926 44761 46210 1 
#T 15 0 62212 56902 57232 62238 57259 57452 62270 57485 36962 37403 62296 37430 37453 62322 37480 37779 37806 38643 62348 38670 38760 62374 38787 38820 62400 38847 39249 62426 39276 39354 62452 39381 40036 57673 40063 40093 57724 40145 40248 57762 40287 40341 62478 40368 40572 40599 40753 40788 41025 62504 41052 41658 41685 41930 1 
# subpath constraints, in the format 'node1 node2 node3 ... '
# 0 subpath constraints for genome
#S 2 2434 
#S 9554 9976 
#S 4893 9554 9976 
#S 2 2434 
#S 2 2434 
# 1 subpath constraints for genome
#S 11634 12159 12189 13375 
#S 12189 13375 13402 14839 
#S 17008 19295 
#S 0 11633 
#S 17008 19295 19322 19559 19586 19790 19817 19898 19925 19944 1 
# 2 subpath constraints for genome
#S 0 1 
#S 0 1 
#S 0 1 
#S 0 1 
#S 0 1 
# 3 subpath constraints for genome
#S 12189 13375 29981 13402 14839 
#S 17008 19295 
#S 17008 19295 30083 19322 19559 30109 19586 19790 30135 19817 19898 30161 19925 19944 31826 
#S 14866 16873 
#S 13402 14839 30007 14866 16873 
# 4 subpath constraints for genome
#S 2461 4151 36961 4178 4893 
#S 0 36487 
#S 0 36487 
#S 0 36487 
#S 0 36487 
# 5 subpath constraints for genome
#S 4893 9554 
#S 4893 9554 
#S 4893 9554 
#S 4893 9554 
#S 2461 4151 4178 4893 9554 
# 6 subpath constraints for genome
#S 37480 37779 37806 38643 
#S 40248 40287 40341 40368 40572 40599 40753 40788 41025 41052 41658 
#S 42365 44734 44761 46210 
#S 42365 44734 
#S 38847 39249 39276 39354 39381 40036 40063 40093 40145 40248 
# 7 subpath constraints for genome
#S 49000 1 
#S 0 48994 49000 48994 
#S 49000 1 
#S 49000 1 
#S 0 48994 
# 8 subpath constraints for genome
#S 44761 46210 
#S 40599 40753 57822 40788 41025 41052 41658 
#S 57485 36962 37403 37430 37453 37480 37779 57647 37806 38643 
#S 42365 44734 57926 44761 46210 
#S 37806 38643 38670 38760 38787 38820 38847 39249 
# 9 subpath constraints for genome
#S 41658 41685 41930 
#S 56902 57232 62238 57259 57452 62270 57485 36962 37403 62296 
#S 57259 57452 62270 57485 36962 37403 62296 37430 37453 62322 37480 37779 
#S 0 62212 56902 57232 62238 57259 57452 62270 57485 36962 
#S 0 62212 
169
2 2434 87
2434 2461 36
2434 36935 31
2461 4151 66
4151 4178 21
4151 36961 46
4178 4893 77
4893 1 40
4893 9554 31
9554 1 10
9554 9976 28
9976 1 18
11633 11634 8
11634 12159 55
12159 12189 11
12159 29955 27
12189 13375 35
13375 13402 9
13375 29981 22
13402 14839 45
14839 14866 8
14839 30007 25
14866 16873 42
16873 16900 10
16873 30033 25
16900 16982 41
16982 17008 9
16982 30057 37
17008 19295 38
19295 19322 9
19295 30083 33
19322 19559 32
19559 19586 13
19559 30109 33
19586 19790 51
19790 19817 11
19790 30135 27
19817 19898 33
19898 19925 10
19898 30161 21
19925 19944 44
19944 1 14
19944 31826 27
29955 12189 24
29981 13402 22
30007 14866 28
30033 16900 30
30057 17008 27
30083 19322 25
30109 19586 27
30135 19817 27
30161 19925 30
31826 1 28
36487 36488 42
36488 2 47
36935 2461 56
36961 4178 42
36962 37403 52
37403 37430 40
37403 62296 14
37430 37453 43
37453 37480 29
37453 62322 12
37480 37779 47
37779 37806 29
37779 57647 29
37806 38643 55
38643 38670 39
38643 62348 17
38670 38760 59
38760 38787 39
38760 62374 16
38787 38820 48
38820 38847 32
38820 62400 11
38847 39249 60
39249 39276 37
39249 62426 11
39276 39354 56
39354 39381 37
39354 62452 12
39381 40036 68
40036 40063 10
40036 57673 38
40063 40093 50
40093 40145 11
40093 57724 43
40145 40248 53
40248 40287 14
40248 57762 41
40287 40341 49
40341 40368 31
40341 62478 9
40368 40572 63
40572 40599 17
40572 57788 28
40599 40753 39
40753 40788 14
40753 57822 38
40788 41025 49
41025 41052 34
41025 62504 18
41052 41658 43
41658 41685 26
41658 57848 32
41685 41930 48
41930 1 17
41930 42023 36
42023 42050 9
42023 57874 33
42050 42338 43
42338 42365 11
42338 57900 43
42365 44734 44
44734 44761 8
44734 57926 24
44761 46210 42
46210 1 20
46210 46315 5
46315 46315 10
46315 46368 5
46368 46371 19
46371 46428 9
46371 1 7
46428 46431 13
46431 46428 9
46431 46368 6
48994 49000 60
49000 48994 32
49000 1 43
56902 57232 47
57232 57259 30
57232 62238 19
57259 57452 41
57452 57485 25
57452 62270 12
57485 36962 47
57647 37806 21
57673 40063 44
57724 40145 47
57762 40287 38
57788 40599 33
57822 40788 23
57848 41685 24
57874 42050 26
57900 42365 30
57926 44761 26
62212 56902 16
62238 57259 14
62270 57485 18
62296 37430 12
62322 37480 14
62348 38670 12
62374 38787 14
62400 38847 17
62426 39276 16
62452 39381 22
62478 40368 19
62504 41052 10
0 2 26
0 11634 23
0 36488 7
0 36962 7
0 11633 11
0 1 7
0 36487 41
0 48994 35
0 56902 26
0 62212 19