#gt10.kmer27.(4240000.4250000).V136.E189.mincyc2.e1.0
#construct-flow-graph.py -o graphs-g10-w10000-k27-cyc/ -g 10 -w 10000 -k 27 --mincycles 1 --nreads 5 --readlength 1000 --distribution lognormal11 --pdf
#kmersize=27
#windowsize=10000
#acyclic=False
#mincycles=1
#distribution=lognormal11
#ngenomes=10
#nreads=5
#readlength=1000
#outdir=graphs-g10-w10000-k27-cyc/
#pdf=True
#erroreps=1.0
#unique source is 0, unique sink is 1
#genomes: GCA_000005845.2_ASM584v2.fna GCA_000006665.1_ASM666v1.fna GCA_000007445.1_ASM744v1.fna GCA_000008865.2_ASM886v2.fna GCA_000009565.2_ASM956v1.fna GCA_000010245.1_ASM1024v1.fna GCA_000010385.1_ASM1038v1.fna GCA_000010485.1_ASM1048v1.fna GCA_000010745.1_ASM1074v1.fna GCA_000010765.1_ASM1076v1.fna 
# ground truth paths, in the format 'weight node1 node2 node3 ... '
#T 190 0 2 5210 5225 5273 5330 5378 5384 5483 5552 5591 5603 5630 5642 5669 5726 5753 5774 5801 5831 5882 5951 6014 6110 6155 6173 6200 6231 6258 6386 6497 6528 6626 6653 6755 6782 6974 7001 7073 7148 7385 7412 7424 7451 7487 7514 7541 7649 7661 7691 7700 7727 8056 8101 8227 8254 8260 8287 8467 8494 8612 8639 8755 8806 8812 8839 9154 9250 9311 9325 9325 9428 9430 9471 9553 9623 9659 9686 9710 9747 9774 9797 9833 9845 9872 9929 1 
#T 10 0 1 
#T 12 0 29925 1 
#T 36 0 39900 1 
#T 127 0 49875 1 
#T 55 0 53465 2 5210 5225 5273 5330 5378 5384 5483 5552 5591 5603 5630 5642 5669 5726 5753 5774 5801 5831 5882 5951 6014 6110 6155 6173 6200 6231 6258 6386 1 
#T 6 0 53915 53916 53915 53916 53915 53916 53915 53916 53915 53916 53915 53916 53915 53916 53915 53916 53915 53916 53915 53916 1 
#T 140 0 5210 5225 63437 5273 5330 63484 5378 5384 63582 5483 5552 63620 5591 5603 63646 5630 5642 63672 5669 5726 63698 5753 5774 63724 5801 5831 63774 5882 5951 63836 6014 6110 63880 6155 6173 63906 6200 6231 63932 6258 6386 6497 63962 6528 6626 63988 6653 6755 64014 6782 6974 64040 7001 7073 64114 7148 7385 64140 7412 7424 64166 7451 7487 64192 7514 7541 64299 7649 7661 64328 7691 7700 64354 7727 8056 64398 8101 8227 64424 8254 8260 64450 8287 8467 64476 8494 8612 64502 8639 8755 64552 8806 8812 64578 8839 9154 64673 9250 9311 9428 9430 64819 9471 9553 64888 9623 9659 64914 9686 9710 64950 9747 64976 9774 9797 65011 9833 9845 65037 9872 9929 70302 1 
#T 4 0 79651 79652 80277 1 
#T 148 0 79652 80277 89626 1 
# subpath constraints, in the format 'node1 node2 node3 ... '
# 0 subpath constraints for genome
#S 9325 9325 9428 9430 9471 9553 9623 9659 9686 9710 9747 9774 9797 9833 9845 9872 9929 1 
#S 7001 7073 7148 7385 7412 7424 7451 7487 7514 7541 7649 7661 7691 7700 7727 8056 
#S 7487 7514 7541 7649 7661 7691 7700 7727 8056 8101 8227 8254 8260 8287 8467 8494 
#S 2 5210 
#S 2 5210 
# 1 subpath constraints for genome
#S 0 1 
#S 0 1 
#S 0 1 
#S 0 1 
#S 0 1 
# 2 subpath constraints for genome
#S 0 29925 
#S 0 29925 
#S 0 29925 
#S 0 29925 
#S 0 29925 
# 3 subpath constraints for genome
#S 0 39900 
#S 0 39900 
#S 0 39900 
#S 0 39900 
#S 0 39900 
# 4 subpath constraints for genome
#S 0 49875 
#S 0 49875 
#S 0 49875 
#S 0 49875 
#S 0 49875 
# 5 subpath constraints for genome
#S 0 53465 
#S 0 53465 
#S 2 5210 5225 5273 5330 5378 5384 5483 5552 5591 5603 5630 5642 5669 5726 5753 5774 5801 5831 5882 5951 6014 6110 6155 6173 
#S 2 5210 
#S 2 5210 
# 6 subpath constraints for genome
#S 53916 1 
#S 53916 1 
#S 53916 1 
#S 53916 1 
#S 53916 1 
# 7 subpath constraints for genome
#S 9929 70302 
#S 7148 7385 64140 7412 7424 64166 7451 7487 64192 7514 7541 64299 7649 7661 64328 7691 7700 64354 7727 8056 64398 8101 8227 64424 8254 8260 64450 8287 8467 
#S 7148 7385 64140 7412 7424 64166 7451 7487 64192 7514 7541 64299 7649 7661 64328 7691 7700 64354 7727 8056 64398 8101 8227 64424 8254 8260 64450 8287 8467 
#S 5591 5603 63646 5630 5642 63672 5669 5726 63698 5753 5774 63724 5801 5831 63774 5882 5951 63836 6014 6110 63880 6155 6173 63906 6200 6231 63932 6258 6386 6497 63962 6528 6626 
#S 9929 70302 
# 8 subpath constraints for genome
#S 0 79651 
#S 0 79651 
#S 0 79651 
#S 0 79651 
#S 0 79651 
# 9 subpath constraints for genome
#S 80277 89626 
#S 80277 89626 
#S 80277 89626 
#S 80277 89626 
#S 80277 89626 
189
2 5210 260
5210 5225 372
5225 5273 219
5225 63437 127
5273 5330 430
5330 5378 252
5330 63484 134
5378 5384 367
5384 5483 249
5384 63582 140
5483 5552 355
5552 5591 235
5552 63620 136
5591 5603 380
5603 5630 267
5603 63646 145
5630 5642 370
5642 5669 244
5642 63672 144
5669 5726 384
5726 5753 256
5726 63698 129
5753 5774 407
5774 5801 216
5774 63724 130
5801 5831 397
5831 5882 238
5831 63774 128
5882 5951 423
5951 6014 240
5951 63836 150
6014 6110 377
6110 6155 249
6110 63880 140
6155 6173 350
6173 6200 266
6173 63906 144
6200 6231 378
6231 6258 250
6231 63932 155
6258 6386 398
6386 1 44
6386 6497 292
6497 6528 190
6497 63962 134
6528 6626 326
6626 6653 194
6626 63988 136
6653 6755 343
6755 6782 204
6755 64014 129
6782 6974 334
6974 7001 192
6974 64040 148
7001 7073 342
7073 7148 169
7073 64114 136
7148 7385 319
7385 7412 207
7385 64140 123
7412 7424 372
7424 7451 194
7424 64166 151
7451 7487 320
7487 7514 188
7487 64192 123
7514 7541 351
7541 7649 172
7541 64299 137
7649 7661 332
7661 7691 199
7661 64328 143
7691 7700 340
7700 7727 195
7700 64354 148
7727 8056 331
8056 8101 198
8056 64398 159
8101 8227 313
8227 8254 182
8227 64424 155
8254 8260 324
8260 8287 176
8260 64450 140
8287 8467 332
8467 8494 170
8467 64476 123
8494 8612 325
8612 8639 219
8612 64502 167
8639 8755 340
8755 8806 185
8755 64552 151
8806 8812 305
8812 8839 200
8812 64578 121
8839 9154 318
9154 9250 220
9154 64673 155
9250 9311 343
9311 9325 171
9311 9428 144
9325 9325 172
9325 9428 200
9428 9430 329
9430 9471 218
9430 64819 147
9471 9553 323
9553 9623 191
9553 64888 143
9623 9659 322
9659 9686 184
9659 64914 148
9686 9710 337
9710 9747 180
9710 64950 120
9747 9774 192
9747 64976 138
9774 9797 319
9797 9833 199
9797 65011 138
9833 9845 319
9845 9872 202
9845 65037 152
9872 9929 309
9929 1 188
9929 70302 136
29925 1 10
39900 1 35
49875 1 118
53465 2 48
53915 53916 49
53916 53915 63
53916 1 9
63437 5273 143
63484 5378 143
63582 5483 128
63620 5591 132
63646 5630 119
63672 5669 155
63698 5753 158
63724 5801 137
63774 5882 141
63836 6014 141
63880 6155 124
63906 6200 135
63932 6258 128
63962 6528 135
63988 6653 153
64014 6782 142
64040 7001 138
64114 7148 128
64140 7412 143
64166 7451 160
64192 7514 128
64299 7649 146
64328 7691 141
64354 7727 132
64398 8101 152
64424 8254 150
64450 8287 161
64476 8494 137
64502 8639 151
64552 8806 133
64578 8839 152
64673 9250 149
64819 9471 130
64888 9623 128
64914 9686 132
64950 9747 149
64976 9774 157
65011 9833 126
65037 9872 145
70302 1 132
79651 79652 1
79652 80277 166
80277 1 8
80277 89626 163
89626 1 151
0 2 195
0 5210 146
0 79652 148
0 1 12
0 29925 9
0 39900 42
0 49875 131
0 53465 65
0 53915 5
0 79651 4