#gt10.kmer27.(1970000.1980000).V37.E55.mincyc1.e1.0
#construct-flow-graph.py -o graphs-g10-w10000-k27-cyc/ -g 10 -w 10000 -k 27 --mincycles 1 --nreads 5 --readlength 1000 --distribution lognormal11 --pdf
#kmersize=27
#windowsize=10000
#acyclic=False
#mincycles=1
#distribution=lognormal11
#ngenomes=10
#nreads=5
#readlength=1000
#outdir=graphs-g10-w10000-k27-cyc/
#pdf=True
#erroreps=1.0
#unique source is 0, unique sink is 1
#genomes: GCA_000005845.2_ASM584v2.fna GCA_000006665.1_ASM666v1.fna GCA_000007445.1_ASM744v1.fna GCA_000008865.2_ASM886v2.fna GCA_000009565.2_ASM956v1.fna GCA_000010245.1_ASM1024v1.fna GCA_000010385.1_ASM1038v1.fna GCA_000010485.1_ASM1048v1.fna GCA_000010745.1_ASM1074v1.fna GCA_000010765.1_ASM1076v1.fna 
# ground truth paths, in the format 'weight node1 node2 node3 ... '
#T 36 0 2 8262 9976 1 
#T 20 0 1 
#T 5 0 29926 1 
#T 29 0 39901 1 
#T 41 0 39902 40022 40049 40058 40086 40542 40579 40634 40661 40726 40753 40761 40788 40825 40852 41045 1 
#T 21 0 51590 2 8262 1 
#T 59 0 61565 1 
#T 8 0 62396 62455 62396 62455 39902 40022 70342 40049 40058 70369 40086 40542 70405 40579 40634 70431 40661 40726 70457 40753 40761 70483 40788 40825 70509 40852 41045 70529 1 
#T 49 0 80504 1 
#T 44 0 90479 1 
# subpath constraints, in the format 'node1 node2 node3 ... '
# 0 subpath constraints for genome
#S 2 8262 
#S 2 8262 
#S 8262 9976 
#S 2 8262 
#S 2 8262 
# 1 subpath constraints for genome
#S 0 1 
#S 0 1 
#S 0 1 
#S 
#S 0 1 
# 2 subpath constraints for genome
#S 0 29926 
#S 0 29926 
#S 0 29926 
#S 0 29926 
#S 0 29926 
# 3 subpath constraints for genome
#S 0 39901 
#S 0 39901 
#S 0 39901 
#S 0 39901 
#S 0 39901 
# 4 subpath constraints for genome
#S 41045 1 
#S 41045 1 
#S 41045 1 
#S 40086 40542 40579 40634 40661 40726 40753 40761 40788 40825 40852 41045 1 
#S 41045 1 
# 5 subpath constraints for genome
#S 2 8262 
#S 2 8262 
#S 2 8262 
#S 0 51590 
#S 0 51590 
# 6 subpath constraints for genome
#S 0 61565 
#S 0 61565 
#S 0 61565 
#S 0 61565 
#S 0 61565 
# 7 subpath constraints for genome
#S 62455 62396 
#S 62455 62396 62455 39902 
#S 39902 40022 70342 40049 40058 70369 40086 40542 70405 40579 40634 70431 40661 40726 70457 40753 40761 70483 40788 40825 70509 40852 41045 
#S 62455 39902 
#S 62455 39902 
# 8 subpath constraints for genome
#S 0 80504 
#S 0 80504 
#S 0 80504 
#S 0 80504 
#S 0 80504 
# 9 subpath constraints for genome
#S 0 90479 
#S 0 90479 
#S 0 90479 
#S 0 90479 
#S 0 90479 
55
2 8262 54
8262 1 20
8262 9976 43
9976 1 38
29926 1 3
39901 1 27
39902 40022 38
40022 40049 43
40022 70342 10
40049 40058 50
40058 40086 42
40058 70369 6
40086 40542 60
40542 40579 39
40542 70405 9
40579 40634 54
40634 40661 35
40634 70431 13
40661 40726 46
40726 40753 41
40726 70457 4
40753 40761 47
40761 40788 43
40761 70483 12
40788 40825 50
40825 40852 43
40825 70509 10
40852 41045 49
41045 1 46
41045 70529 7
51590 2 24
61565 1 56
62396 62455 10
62455 62396 7
62455 39902 7
70342 40049 10
70369 40086 11
70405 40579 7
70431 40661 6
70457 40753 6
70483 40788 9
70509 40852 5
70529 1 13
80504 1 51
90479 1 43
0 2 31
0 39902 41
0 1 19
0 29926 3
0 39901 30
0 51590 16
0 61565 52
0 62396 8
0 80504 52
0 90479 38