#gt10.kmer27.(940000.950000).V141.E200.mincyc4.e1.0
#construct-flow-graph.py -o graphs-g10-w10000-k27-cyc/ -g 10 -w 10000 -k 27 --mincycles 1 --nreads 5 --readlength 1000 --distribution lognormal11 --pdf
#kmersize=27
#windowsize=10000
#acyclic=False
#mincycles=1
#distribution=lognormal11
#ngenomes=10
#nreads=5
#readlength=1000
#outdir=graphs-g10-w10000-k27-cyc/
#pdf=True
#erroreps=1.0
#unique source is 0, unique sink is 1
#genomes: GCA_000005845.2_ASM584v2.fna GCA_000006665.1_ASM666v1.fna GCA_000007445.1_ASM744v1.fna GCA_000008865.2_ASM886v2.fna GCA_000009565.2_ASM956v1.fna GCA_000010245.1_ASM1024v1.fna GCA_000010385.1_ASM1038v1.fna GCA_000010485.1_ASM1048v1.fna GCA_000010745.1_ASM1074v1.fna GCA_000010765.1_ASM1076v1.fna 
# ground truth paths, in the format 'weight node1 node2 node3 ... '
#T 12 0 2 4492 4519 4891 9554 9976 1 
#T 33 0 11628 11629 12397 12424 15688 15715 19321 19348 19951 1 
#T 44 0 1 
#T 21 0 11629 12397 29952 12424 15688 29978 15715 19321 30004 19348 19951 31656 1 
#T 6 0 32210 32216 32297 32312 32210 32216 32328 32297 32312 36297 2 4492 36744 4519 4891 1 
#T 14 0 36297 2 4492 4519 4891 9554 1 
#T 59 0 36745 36980 38116 38143 38284 38853 38880 40505 40528 40532 40536 40563 40569 40596 40697 40724 40768 40854 40863 40890 40971 41001 41028 41061 41121 41175 41190 41202 41229 41235 41238 41262 41271 41283 41310 41313 41349 41376 41469 41508 41631 41658 41722 42273 42300 42942 42969 42999 43056 43376 43415 43766 43793 45199 45226 45244 45271 45551 45578 45740 45767 45797 45824 45993 46719 1 
#T 32 0 56694 1 
#T 97 0 56710 56737 56764 56771 56798 56996 57023 57133 57169 57196 57223 36745 36980 38116 57446 38143 38284 38853 57472 38880 40505 40528 57499 40563 40569 57532 40596 40697 57558 40724 40768 57643 40854 40863 57669 40890 40971 41001 41028 57701 41061 41121 57754 41175 41190 41202 57769 41229 41235 41238 41271 41283 57815 41310 41313 41349 41376 41469 57876 41508 41631 57902 41658 41722 42273 57928 42300 42942 57954 42969 42999 58010 43056 43376 58048 43415 43766 58074 43793 45199 58100 45226 45244 58126 45271 45551 58152 45578 45740 58178 45767 45797 58204 45824 45993 1 
#T 34 0 58498 58535 58570 58580 58498 58535 58653 58570 58580 56710 56737 63745 56764 56771 63771 56798 56996 63797 57023 57133 63832 57169 57196 63858 57223 36745 36980 38284 38853 38880 40505 40532 40536 57499 40563 40569 40596 40697 40724 40768 40854 40863 40890 40971 63956 41001 63982 41028 57701 41061 41121 57754 41175 41190 57769 41229 41235 41262 41271 41283 57815 41313 41349 64086 41376 41469 57876 41508 41631 41658 41722 1 
# subpath constraints, in the format 'node1 node2 node3 ... '
# 0 subpath constraints for genome
#S 4519 4891 9554 
#S 2 4492 
#S 4891 9554 9976 
#S 4891 9554 
#S 4891 9554 
# 1 subpath constraints for genome
#S 15715 19321 19348 19951 
#S 0 11628 
#S 12424 15688 
#S 0 11628 11629 12397 
#S 12424 15688 
# 2 subpath constraints for genome
#S 0 1 
#S 0 1 
#S 0 1 
#S 0 1 
#S 0 1 
# 3 subpath constraints for genome
#S 19951 31656 
#S 15715 19321 30004 19348 19951 
#S 12424 15688 29978 15715 19321 
#S 15715 19321 30004 19348 19951 
#S 15715 19321 
# 4 subpath constraints for genome
#S 32312 36297 2 4492 
#S 32312 36297 
#S 0 32210 32216 32297 32312 32210 32216 32328 32297 32312 36297 
#S 32312 36297 
#S 32312 36297 2 4492 
# 5 subpath constraints for genome
#S 2 4492 
#S 36297 2 4492 
#S 2 4492 
#S 4891 9554 
#S 4891 9554 
# 6 subpath constraints for genome
#S 45993 46719 
#S 42300 42942 42969 42999 43056 43376 43415 43766 43793 45199 
#S 43793 45199 45226 45244 45271 45551 
#S 36980 38116 
#S 36980 38116 
# 7 subpath constraints for genome
#S 0 56694 
#S 0 56694 
#S 0 56694 
#S 0 56694 
#S 0 56694 
# 8 subpath constraints for genome
#S 43793 45199 58100 45226 45244 58126 45271 45551 
#S 43793 45199 58100 45226 45244 58126 45271 45551 58152 45578 45740 58178 45767 45797 
#S 56798 56996 57023 57133 57169 57196 57223 36745 36980 38116 
#S 38880 40505 
#S 41061 41121 57754 41175 41190 41202 57769 41229 41235 41238 41271 41283 57815 41310 41313 41349 41376 41469 57876 41508 41631 57902 41658 41722 42273 
# 9 subpath constraints for genome
#S 58580 56710 
#S 41028 57701 41061 41121 57754 41175 41190 57769 41229 41235 41262 41271 41283 57815 41313 41349 64086 41376 41469 57876 41508 41631 41658 41722 
#S 38880 40505 
#S 58580 56710 
#S 58580 56710 
200
2 4492 31
4492 4519 34
4492 36744 5
4519 4891 26
4891 1 11
4891 9554 22
9554 1 9
9554 9976 16
9976 1 13
11628 11629 30
11629 12397 42
12397 12424 38
12397 29952 26
12424 15688 56
15688 15715 42
15688 29978 17
15715 19321 51
19321 19348 30
19321 30004 23
19348 19951 48
19951 1 32
19951 31656 11
29952 12424 15
29978 15715 16
30004 19348 16
31656 1 21
32210 32216 9
32216 32297 8
32216 32328 8
32297 32312 16
32312 32210 4
32312 36297 6
32328 32297 8
36297 2 25
36744 4519 6
36745 36980 181
36980 38116 172
36980 38284 38
38116 38143 55
38116 57446 103
38143 38284 157
38284 38853 203
38853 38880 68
38853 57472 100
38880 40505 192
40505 40528 157
40505 40532 39
40528 40532 60
40528 57499 103
40532 40536 96
40536 40563 71
40536 57499 33
40563 40569 183
40569 40596 88
40569 57532 86
40596 40697 196
40697 40724 90
40697 57558 115
40724 40768 199
40768 40854 93
40768 57643 91
40854 40863 197
40863 40890 96
40863 57669 80
40890 40971 197
40971 41001 147
40971 63956 44
41001 41028 161
41001 63982 28
41028 41061 67
41028 57701 140
41061 41121 188
41121 41175 67
41121 57754 142
41175 41190 191
41190 41202 171
41190 57769 32
41202 41229 53
41202 57769 106
41229 41235 193
41235 41238 139
41235 41262 38
41238 41262 52
41238 41271 98
41262 41271 102
41271 41283 198
41283 41310 53
41283 57815 124
41310 41313 131
41313 41349 196
41349 41376 158
41349 64086 39
41376 41469 194
41469 41508 60
41469 57876 139
41508 41631 204
41631 41658 79
41631 57902 103
41658 41722 202
41722 1 30
41722 42273 138
42273 42300 64
42273 57928 94
42300 42942 132
42942 42969 65
42942 57954 82
42969 42999 150
42999 43056 63
42999 58010 88
43056 43376 157
43376 43415 48
43376 58048 111
43415 43766 148
43766 43793 56
43766 58074 80
43793 45199 134
45199 45226 55
45199 58100 97
45226 45244 176
45244 45271 58
45244 58126 96
45271 45551 163
45551 45578 74
45551 58152 96
45578 45740 161
45740 45767 59
45740 58178 81
45767 45797 147
45797 45824 60
45797 58204 104
45824 45993 134
45993 1 108
45993 46719 55
46719 1 39
56694 1 28
56710 56737 142
56737 56764 100
56737 63745 33
56764 56771 144
56771 56798 97
56771 63771 33
56798 56996 141
56996 57023 90
56996 63797 39
57023 57133 130
57133 57169 82
57133 63832 31
57169 57196 135
57196 57223 93
57196 63858 36
57223 36745 137
57446 38143 98
57472 38880 112
57499 40563 144
57532 40596 102
57558 40724 112
57643 40854 73
57669 40890 98
57701 41061 150
57754 41175 129
57769 41229 132
57815 41310 94
57815 41313 35
57876 41508 141
57902 41658 101
57928 42300 107
57954 42969 86
58010 43056 90
58048 43415 103
58074 43793 94
58100 45226 103
58126 45271 108
58152 45578 86
58178 45767 96
58204 45824 109
58498 58535 79
58535 58570 32
58535 58653 38
58570 58580 68
58580 58498 42
58580 56710 28
58653 58570 34
63745 56764 35
63771 56798 37
63797 57023 37
63832 57169 31
63858 57223 31
63956 41001 35
63982 41028 44
64086 41376 28
0 2 7
0 11629 24
0 36297 16
0 36745 69
0 11628 32
0 1 30
0 32210 6
0 56694 26
0 56710 86
0 58498 23