#gt10.kmer27.(4290000.4300000).V67.E98.mincyc9.e1.0
#construct-flow-graph.py -o graphs-g10-w10000-k27-cyc/ -g 10 -w 10000 -k 27 --mincycles 1 --nreads 5 --readlength 1000 --distribution lognormal11 --pdf
#kmersize=27
#windowsize=10000
#acyclic=False
#mincycles=1
#distribution=lognormal11
#ngenomes=10
#nreads=5
#readlength=1000
#outdir=graphs-g10-w10000-k27-cyc/
#pdf=True
#erroreps=1.0
#unique source is 0, unique sink is 1
#genomes: GCA_000005845.2_ASM584v2.fna GCA_000006665.1_ASM666v1.fna GCA_000007445.1_ASM744v1.fna GCA_000008865.2_ASM886v2.fna GCA_000009565.2_ASM956v1.fna GCA_000010245.1_ASM1024v1.fna GCA_000010385.1_ASM1038v1.fna GCA_000010485.1_ASM1048v1.fna GCA_000010745.1_ASM1074v1.fna GCA_000010765.1_ASM1076v1.fna 
# ground truth paths, in the format 'weight node1 node2 node3 ... '
#T 47 0 2 5833 5836 5846 5854 5904 5931 5939 5854 5904 5967 5984 5931 5939 5836 5846 5854 5904 5931 5939 5854 5904 5931 5939 5854 5904 5967 6026 5833 5836 5846 6127 9606 1 
#T 24 0 1 
#T 10 0 29556 1 
#T 72 0 32676 32679 32676 32679 1 
#T 38 0 48401 48453 48461 48498 48401 48453 48461 48547 48498 48401 48453 1 
#T 66 0 49406 49412 49442 49481 49517 49520 49547 49577 49604 49634 49661 49727 49754 49772 2 5833 5836 5846 5854 5904 5931 5939 5854 5904 5967 5984 5931 5939 5836 5846 5854 5904 5931 5939 5854 5904 5967 5984 6026 5833 5836 5846 6127 1 
#T 22 0 62947 1 
#T 14 0 72543 49406 49412 72572 49442 49481 72607 49517 49520 72633 49547 49577 72659 49604 49634 72685 49661 49727 72711 49754 49772 1 
#T 23 0 81941 81942 81959 81986 82095 82122 82123 82184 82279 82306 82342 82369 82392 82419 82698 1 
#T 60 0 81942 81959 82724 81986 82095 82750 82122 82123 82810 82184 82279 82836 82306 82342 82862 82369 82392 82888 82419 82698 92106 1 
# subpath constraints, in the format 'node1 node2 node3 ... '
# 0 subpath constraints for genome
#S 5904 5931 5939 5854 5904 5967 6026 5833 5836 5846 6127 9606 
#S 6127 9606 
#S 6127 9606 
#S 6127 9606 
#S 2 5833 
# 1 subpath constraints for genome
#S 0 1 
#S 0 1 
#S 0 1 
#S 0 1 
#S 0 1 
# 2 subpath constraints for genome
#S 0 29556 
#S 0 29556 
#S 0 29556 
#S 0 29556 
#S 0 29556 
# 3 subpath constraints for genome
#S 0 32676 
#S 32679 1 
#S 32679 1 
#S 0 32676 32679 32676 32679 1 
#S 32679 1 
# 4 subpath constraints for genome
#S 0 48401 
#S 0 48401 
#S 0 48401 
#S 0 48401 
#S 0 48401 
# 5 subpath constraints for genome
#S 2 5833 5836 5846 5854 5904 5931 5939 5854 5904 5967 5984 
#S 2 5833 
#S 2 5833 
#S 2 5833 
#S 49772 2 
# 6 subpath constraints for genome
#S 0 62947 
#S 0 62947 
#S 0 62947 
#S 0 62947 
#S 0 62947 
# 7 subpath constraints for genome
#S 0 72543 
#S 0 72543 
#S 0 72543 
#S 0 72543 49406 49412 72572 49442 49481 72607 49517 49520 72633 49547 49577 72659 49604 49634 72685 49661 49727 72711 49754 49772 1 
#S 0 72543 
# 8 subpath constraints for genome
#S 0 81941 
#S 0 81941 
#S 0 81941 81942 81959 81986 82095 82122 
#S 0 81941 
#S 0 81941 
# 9 subpath constraints for genome
#S 82698 92106 
#S 82419 82698 92106 
#S 82698 92106 
#S 82698 92106 
#S 82698 92106 
98
2 5833 112
5833 5836 231
5836 5846 312
5846 5854 216
5846 6127 111
5854 5904 501
5904 5967 217
5904 5931 307
5931 5939 394
5939 5854 264
5939 5836 100
5967 5984 183
5967 6026 42
5984 5931 108
5984 6026 84
6026 5833 109
6127 1 72
6127 9606 57
9606 1 47
29556 1 9
32676 32679 144
32679 32676 81
32679 1 72
48401 48453 124
48453 48461 71
48453 1 27
48461 48498 43
48461 48547 24
48498 48401 88
48547 48498 29
49406 49412 77
49412 49442 58
49412 72572 9
49442 49481 88
49481 49517 66
49481 72607 18
49517 49520 80
49520 49547 60
49520 72633 11
49547 49577 86
49577 49604 48
49577 72659 9
49604 49634 84
49634 49661 61
49634 72685 15
49661 49727 78
49727 49754 60
49727 72711 9
49754 49772 79
49772 2 71
49772 1 13
62947 1 21
72543 49406 15
72572 49442 9
72607 49517 18
72633 49547 11
72659 49604 14
72685 49661 15
72711 49754 12
81941 81942 31
81942 81959 80
81959 81986 22
81959 82724 60
81986 82095 87
82095 82122 25
82095 82750 61
82122 82123 61
82123 82184 23
82123 82810 50
82184 82279 95
82279 82306 21
82279 82836 69
82306 82342 79
82342 82369 26
82342 82862 61
82369 82392 74
82392 82419 19
82392 82888 54
82419 82698 91
82698 1 25
82698 92106 58
82724 81986 64
82750 82122 55
82810 82184 52
82836 82306 44
82862 82369 58
82888 82419 67
92106 1 52
0 2 49
0 81942 72
0 1 28
0 29556 13
0 32676 71
0 48401 34
0 49406 61
0 62947 23
0 72543 16
0 81941 26