#gt10.kmer27.(2900000.2910000).V46.E70.mincyc6.e1.0
#construct-flow-graph.py -o graphs-g10-w10000-k27-cyc/ -g 10 -w 10000 -k 27 --mincycles 1 --nreads 5 --readlength 1000 --distribution lognormal11 --pdf
#kmersize=27
#windowsize=10000
#acyclic=False
#mincycles=1
#distribution=lognormal11
#ngenomes=10
#nreads=5
#readlength=1000
#outdir=graphs-g10-w10000-k27-cyc/
#pdf=True
#erroreps=1.0
#unique source is 0, unique sink is 1
#genomes: GCA_000005845.2_ASM584v2.fna GCA_000006665.1_ASM666v1.fna GCA_000007445.1_ASM744v1.fna GCA_000008865.2_ASM886v2.fna GCA_000009565.2_ASM956v1.fna GCA_000010245.1_ASM1024v1.fna GCA_000010385.1_ASM1038v1.fna GCA_000010485.1_ASM1048v1.fna GCA_000010745.1_ASM1074v1.fna GCA_000010765.1_ASM1076v1.fna 
# ground truth paths, in the format 'weight node1 node2 node3 ... '
#T 24 0 1345 1346 4015 4074 4075 4015 4077 4134 4075 4015 4077 4135 4134 4075 4015 4077 4191 4134 4075 4015 4077 4135 4015 4077 4074 4075 4015 4077 4191 9951 1 
#T 82 0 1 
#T 52 0 29183 29251 29278 29281 29320 29368 29395 29554 29581 29614 29641 29668 29719 29737 29764 29842 29878 29901 1 
#T 20 0 39876 1 
#T 25 0 49851 1 
#T 45 0 1346 4015 4074 4075 4015 4077 4134 4075 4015 4077 4135 4134 4075 4015 4077 4191 4134 4075 4015 4077 4135 4015 4077 4074 4075 4015 4077 4191 9951 51195 1 
#T 18 0 51214 29183 29251 51240 29278 29281 51278 29320 29368 51304 29395 29554 51330 29581 29614 51356 29641 29668 51406 29719 29737 51432 29764 29842 51467 29878 29901 60704 1 
#T 16 0 70679 1 
#T 45 0 80654 1 
#T 20 0 90629 1 
# subpath constraints, in the format 'node1 node2 node3 ... '
# 0 subpath constraints for genome
#S 1346 4015 
#S 0 1345 1346 4015 
#S 0 1345 
#S 1346 4015 
#S 4191 9951 
# 1 subpath constraints for genome
#S 0 1 
#S 0 1 
#S 0 1 
#S 0 1 
#S 0 1 
# 2 subpath constraints for genome
#S 0 29183 
#S 0 29183 
#S 0 29183 
#S 0 29183 29251 29278 29281 29320 29368 
#S 0 29183 
# 3 subpath constraints for genome
#S 0 39876 
#S 0 39876 
#S 0 39876 
#S 0 39876 
#S 0 39876 
# 4 subpath constraints for genome
#S 0 49851 
#S 0 49851 
#S 0 49851 
#S 0 49851 
#S 0 49851 
# 5 subpath constraints for genome
#S 4191 9951 
#S 1346 4015 4074 4075 4015 4077 4134 4075 4015 4077 4135 4134 4075 4015 4077 4191 4134 4075 4015 4077 4135 4015 4077 4074 4075 4015 4077 4191 9951 
#S 4191 9951 
#S 1346 4015 
#S 9951 51195 
# 6 subpath constraints for genome
#S 29901 60704 
#S 29901 60704 
#S 29901 60704 
#S 29901 60704 
#S 29901 60704 
# 7 subpath constraints for genome
#S 0 70679 
#S 0 70679 
#S 0 70679 
#S 0 70679 
#S 0 70679 
# 8 subpath constraints for genome
#S 0 80654 
#S 0 80654 
#S 0 80654 
#S 0 80654 
#S 0 80654 
# 9 subpath constraints for genome
#S 0 90629 
#S 0 90629 
#S 0 90629 
#S 0 90629 
#S 0 90629 
70
1345 1346 30
1346 4015 75
4015 4074 79
4015 4077 399
4074 4075 144
4075 4015 329
4077 4135 129
4077 4191 132
4077 4134 73
4077 4074 67
4134 4075 221
4135 4134 68
4135 4015 64
4191 4134 54
4191 9951 66
9951 1 27
9951 51195 50
29183 29251 73
29251 29278 55
29251 51240 10
29278 29281 64
29281 29320 54
29281 51278 17
29320 29368 78
29368 29395 67
29368 51304 21
29395 29554 59
29554 29581 50
29554 51330 19
29581 29614 71
29614 29641 50
29614 51356 19
29641 29668 65
29668 29719 57
29668 51406 21
29719 29737 70
29737 29764 57
29737 51432 22
29764 29842 74
29842 29878 56
29842 51467 11
29878 29901 72
29901 1 55
29901 60704 24
39876 1 12
49851 1 24
51195 1 48
51214 29183 29
51240 29278 23
51278 29320 15
51304 29395 17
51330 29581 19
51356 29641 12
51406 29719 11
51432 29764 24
51467 29878 22
60704 1 17
70679 1 22
80654 1 46
90629 1 16
0 1346 44
0 1345 22
0 1 96
0 29183 51
0 39876 17
0 49851 27
0 51214 19
0 70679 11
0 80654 38
0 90629 29