#gt10.kmer27.(950000.960000).V175.E242.mincyc1.e1.0
#construct-flow-graph.py -o graphs-g10-w10000-k27-cyc/ -g 10 -w 10000 -k 27 --mincycles 1 --nreads 5 --readlength 1000 --distribution lognormal11 --pdf
#kmersize=27
#windowsize=10000
#acyclic=False
#mincycles=1
#distribution=lognormal11
#ngenomes=10
#nreads=5
#readlength=1000
#outdir=graphs-g10-w10000-k27-cyc/
#pdf=True
#erroreps=1.0
#unique source is 0, unique sink is 1
#genomes: GCA_000005845.2_ASM584v2.fna GCA_000006665.1_ASM666v1.fna GCA_000007445.1_ASM744v1.fna GCA_000008865.2_ASM886v2.fna GCA_000009565.2_ASM956v1.fna GCA_000010245.1_ASM1024v1.fna GCA_000010385.1_ASM1038v1.fna GCA_000010485.1_ASM1048v1.fna GCA_000010745.1_ASM1074v1.fna GCA_000010765.1_ASM1076v1.fna 
# ground truth paths, in the format 'weight node1 node2 node3 ... '
#T 20 0 2 999 1026 2680 2707 4061 4088 4788 4809 4892 9554 9976 1 
#T 44 0 11628 11629 12378 12405 13618 13645 13879 13906 17597 17624 19951 1 
#T 35 0 24186 24187 24186 24187 1 
#T 23 0 11629 12378 29950 12405 13618 29976 13645 13879 30002 13906 17597 30028 17624 19951 31680 1 
#T 180 0 36343 36344 2 999 36791 1026 2680 36817 2707 4061 36843 4088 4788 36862 4809 4892 1 
#T 13 0 36344 2 999 1026 2680 2707 4061 4088 4788 4809 4892 9554 1 
#T 3 0 36863 36866 36886 36913 36970 36997 37046 37073 37283 37310 39565 39592 39697 39724 39751 39871 39898 40179 40206 40253 40280 40331 40358 40398 40435 40462 40489 40562 40607 41285 41312 41390 41415 41442 41453 41504 41528 41558 41666 41693 41722 41749 41779 41806 41840 41938 41983 42073 42100 42136 42163 42190 42217 42433 42460 42544 42571 42690 42717 42840 42867 42975 43021 43027 43054 43164 43191 43264 43291 43551 43578 43686 43713 43785 43812 43845 43872 43959 43986 45414 45441 45525 45552 45819 45855 45900 45927 45966 46017 46111 46837 1 
#T 72 0 1 
#T 7 0 56813 57515 36863 36866 36886 57564 36913 36970 57590 36997 37046 37073 37283 57616 37310 39565 57642 39592 39697 57668 39724 57694 39751 39871 39898 40179 40206 40253 40280 40331 40358 40398 40435 40462 40489 40562 40607 41285 41312 41390 41415 57720 41442 41453 41504 41528 57749 41558 41666 57775 41693 41722 41749 41779 57801 41806 41840 41938 57845 41983 42073 57871 42100 42136 57897 42163 42190 57923 42217 42433 57949 42460 42544 57975 42571 42690 58001 42717 42840 58027 42867 42975 58072 43021 43027 58098 43054 43164 58124 43191 43264 58150 43291 43551 58176 43578 43686 58202 43713 43785 58228 43812 43845 58254 43872 43959 58280 43986 45414 58306 45441 45525 58332 45552 45819 58367 45855 45900 58393 45927 45966 58443 46017 46111 1 
#T 10 0 62714 56813 57515 36866 36886 57564 36913 36970 36997 37046 62766 37073 37283 37310 39565 57642 39592 39697 57668 39724 57694 39751 39871 62792 39898 40179 62818 40206 40253 62844 40280 40331 62870 40358 40398 62906 40435 40462 62932 40489 40562 62976 40607 41285 63002 41312 41390 57720 41442 41453 63102 41504 41528 41558 41666 41693 41722 63128 41749 41779 41806 41840 1 
# subpath constraints, in the format 'node1 node2 node3 ... '
# 0 subpath constraints for genome
#S 2707 4061 4088 4788 4809 4892 9554 
#S 2 999 1026 2680 
#S 1026 2680 
#S 1026 2680 2707 4061 
#S 4892 9554 
# 1 subpath constraints for genome
#S 0 11628 11629 12378 
#S 13906 17597 
#S 17624 19951 
#S 13906 17597 
#S 13906 17597 17624 19951 
# 2 subpath constraints for genome
#S 24187 1 
#S 24187 1 
#S 0 24186 
#S 24187 1 
#S 0 24186 
# 3 subpath constraints for genome
#S 13906 17597 
#S 13906 17597 
#S 17597 30028 17624 19951 
#S 13906 17597 
#S 19951 31680 
# 4 subpath constraints for genome
#S 1026 2680 36817 2707 4061 
#S 2707 4061 36843 4088 4788 
#S 0 36343 36344 2 
#S 0 36343 
#S 0 36343 36344 2 
# 5 subpath constraints for genome
#S 4892 9554 
#S 1026 2680 2707 4061 
#S 4892 9554 
#S 4892 9554 
#S 2707 4061 4088 4788 4809 
# 6 subpath constraints for genome
#S 43986 45414 45441 45525 45552 45819 
#S 43986 45414 45441 45525 45552 45819 45855 45900 45927 45966 46017 
#S 46017 46111 46837 
#S 45552 45819 45855 45900 45927 45966 46017 46111 46837 
#S 40435 40462 40489 40562 40607 41285 41312 41390 41415 41442 41453 
# 7 subpath constraints for genome
#S 0 1 
#S 0 1 
#S 0 1 
#S 0 1 
#S 0 1 
# 8 subpath constraints for genome
#S 46017 46111 
#S 43959 58280 43986 45414 
#S 37310 39565 57642 39592 39697 57668 39724 57694 39751 39871 39898 40179 
#S 41666 57775 41693 41722 41749 41779 57801 41806 41840 41938 57845 41983 42073 57871 42100 42136 57897 42163 42190 57923 42217 42433 57949 42460 42544 57975 42571 42690 
#S 43291 43551 58176 43578 43686 58202 43713 43785 58228 43812 43845 58254 43872 43959 58280 43986 45414 
# 9 subpath constraints for genome
#S 0 62714 
#S 37310 39565 57642 39592 39697 57668 39724 57694 39751 39871 62792 39898 40179 
#S 0 62714 
#S 0 62714 56813 57515 
#S 37310 39565 
242
2 999 187
999 1026 33
999 36791 190
1026 2680 217
2680 2707 24
2680 36817 180
2707 4061 204
4061 4088 25
4061 36843 172
4088 4788 221
4788 4809 29
4788 36862 170
4809 4892 223
4892 1 192
4892 9554 37
9554 1 9
9554 9976 18
9976 1 15
11628 11629 48
11629 12378 72
12378 12405 46
12378 29950 23
12405 13618 65
13618 13645 37
13618 29976 22
13645 13879 61
13879 13906 49
13879 30002 27
13906 17597 67
17597 17624 36
17597 30028 16
17624 19951 62
19951 1 35
19951 31680 28
24186 24187 69
24187 24186 32
24187 1 29
29950 12405 22
29976 13645 19
30002 13906 17
30028 17624 20
31680 1 16
36343 36344 168
36344 2 180
36791 1026 181
36817 2707 182
36843 4088 188
36862 4809 185
36863 36866 17
36866 36886 19
36886 36913 4
36886 57564 16
36913 36970 19
36970 36997 13
36970 57590 7
36997 37046 28
37046 37073 13
37046 62766 10
37073 37283 17
37283 37310 18
37283 57616 8
37310 39565 15
39565 39592 1
39565 57642 19
39592 39697 27
39697 39724 2
39697 57668 25
39724 39751 8
39724 57694 14
39751 39871 19
39871 39898 11
39871 62792 9
39898 40179 14
40179 40206 5
40179 62818 9
40206 40253 24
40253 40280 11
40253 62844 11
40280 40331 13
40331 40358 12
40331 62870 10
40358 40398 19
40398 40435 10
40398 62906 11
40435 40462 17
40462 40489 15
40462 62932 7
40489 40562 21
40562 40607 9
40562 62976 15
40607 41285 30
41285 41312 6
41285 63002 7
41312 41390 18
41390 41415 11
41390 57720 14
41415 41442 1
41415 57720 7
41442 41453 15
41453 41504 6
41453 63102 7
41504 41528 21
41528 41558 11
41528 57749 4
41558 41666 18
41666 41693 16
41666 57775 12
41693 41722 22
41722 41749 8
41722 63128 10
41749 41779 25
41779 41806 17
41779 57801 10
41806 41840 21
41840 1 4
41840 41938 15
41938 41983 7
41938 57845 7
41983 42073 8
42073 42100 1
42073 57871 9
42100 42136 15
42136 42163 1
42136 57897 8
42163 42190 7
42190 42217 1
42190 57923 7
42217 42433 11
42433 42460 8
42433 57949 9
42460 42544 8
42544 42571 2
42544 57975 6
42571 42690 10
42690 42717 2
42690 58001 7
42717 42840 15
42840 42867 4
42840 58027 3
42867 42975 9
42975 43021 3
42975 58072 8
43021 43027 10
43027 43054 3
43027 58098 4
43054 43164 13
43164 43191 1
43164 58124 2
43191 43264 8
43264 43291 1
43264 58150 7
43291 43551 10
43551 43578 3
43551 58176 8
43578 43686 10
43686 43713 2
43686 58202 6
43713 43785 7
43785 43812 3
43785 58228 9
43812 43845 10
43845 43872 4
43845 58254 14
43872 43959 19
43959 43986 3
43959 58280 8
43986 45414 6
45414 45441 1
45414 58306 8
45441 45525 15
45525 45552 6
45525 58332 4
45552 45819 7
45819 45855 3
45819 58367 4
45855 45900 12
45900 45927 4
45900 58393 10
45927 45966 9
45966 46017 2
45966 58443 6
46017 46111 12
46111 1 5
46111 46837 4
46837 1 4
56813 57515 20
57515 36863 6
57515 36866 11
57564 36913 14
57590 36997 16
57616 37310 7
57642 39592 15
57668 39724 20
57694 39751 8
57720 41442 21
57749 41558 10
57775 41693 7
57801 41806 6
57845 41983 9
57871 42100 8
57897 42163 3
57923 42217 12
57949 42460 4
57975 42571 10
58001 42717 8
58027 42867 9
58072 43021 8
58098 43054 8
58124 43191 9
58150 43291 5
58176 43578 11
58202 43713 5
58228 43812 3
58254 43872 8
58280 43986 12
58306 45441 4
58332 45552 10
58367 45855 8
58393 45927 3
58443 46017 10
62714 56813 12
62766 37073 8
62792 39898 8
62818 40206 8
62844 40280 9
62870 40358 12
62906 40435 9
62932 40489 8
62976 40607 13
63002 41312 10
63102 41504 8
63128 41749 11
0 2 25
0 11629 28
0 36344 12
0 36863 3
0 56813 8
0 11628 42
0 24186 43
0 36343 172
0 1 78
0 62714 16