#gt10.kmer27.(3340000.3350000).V21.E37.mincyc7.e1.0
#construct-flow-graph.py -o graphs-g10-w10000-k27-cyc/ -g 10 -w 10000 -k 27 --mincycles 1 --nreads 5 --readlength 1000 --distribution lognormal11 --pdf
#kmersize=27
#windowsize=10000
#acyclic=False
#mincycles=1
#distribution=lognormal11
#ngenomes=10
#nreads=5
#readlength=1000
#outdir=graphs-g10-w10000-k27-cyc/
#pdf=True
#erroreps=1.0
#unique source is 0, unique sink is 1
#genomes: GCA_000005845.2_ASM584v2.fna GCA_000006665.1_ASM666v1.fna GCA_000007445.1_ASM744v1.fna GCA_000008865.2_ASM886v2.fna GCA_000009565.2_ASM956v1.fna GCA_000010245.1_ASM1024v1.fna GCA_000010385.1_ASM1038v1.fna GCA_000010485.1_ASM1048v1.fna GCA_000010745.1_ASM1074v1.fna GCA_000010765.1_ASM1076v1.fna 
# ground truth paths, in the format 'weight node1 node2 node3 ... '
#T 10 0 146 147 9976 1 
#T 18 0 1 
#T 50 0 29926 1 
#T 123 0 39901 1 
#T 54 0 41293 41298 41293 41298 1 
#T 39 0 147 9976 50015 1 
#T 39 0 59990 1 
#T 34 0 69965 1 
#T 28 0 74776 74777 74780 74783 74837 74777 74780 74838 74776 74777 74780 74894 74895 74837 74777 74780 74894 74837 74777 74780 74783 74777 74780 74838 74777 74780 74894 74895 1 
#T 83 0 89881 1 
# subpath constraints, in the format 'node1 node2 node3 ... '
# 0 subpath constraints for genome
#S 147 9976 
#S 147 9976 
#S 147 9976 
#S 147 9976 
#S 147 9976 
# 1 subpath constraints for genome
#S 0 
#S 0 1 
#S 0 1 
#S 0 1 
#S 0 1 
# 2 subpath constraints for genome
#S 0 29926 
#S 0 29926 
#S 0 29926 
#S 0 29926 
#S 0 29926 
# 3 subpath constraints for genome
#S 0 39901 
#S 0 39901 
#S 
#S 0 39901 
#S 0 39901 
# 4 subpath constraints for genome
#S 41298 1 
#S 41298 1 
#S 41298 1 
#S 41298 1 
#S 41298 1 
# 5 subpath constraints for genome
#S 147 9976 
#S 147 9976 
#S 147 9976 
#S 147 9976 
#S 147 9976 50015 
# 6 subpath constraints for genome
#S 0 59990 
#S 0 59990 
#S 0 59990 
#S 0 59990 
#S 0 59990 
# 7 subpath constraints for genome
#S 0 69965 
#S 0 69965 
#S 0 69965 
#S 0 69965 
#S 0 69965 
# 8 subpath constraints for genome
#S 0 74776 74777 74780 74783 74837 74777 74780 74838 74776 74777 74780 74894 74895 74837 74777 74780 74894 74837 74777 74780 74783 74777 74780 74838 74777 
#S 0 74776 74777 74780 74783 74837 74777 74780 74838 74776 74777 74780 74894 74895 74837 74777 74780 74894 74837 74777 74780 74783 74777 74780 74838 74777 74780 74894 74895 1 
#S 74895 1 
#S 0 74776 74777 74780 74783 74837 74777 74780 74838 74776 74777 74780 74894 74895 74837 74777 74780 74894 74837 74777 74780 74783 74777 74780 74838 74777 74780 74894 74895 1 
#S 0 74776 74777 74780 74783 74837 74777 74780 74838 74776 74777 74780 74894 74895 74837 74777 74780 74894 74837 74777 74780 74783 74777 74780 74838 74777 74780 74894 74895 1 
# 9 subpath constraints for genome
#S 0 89881 
#S 0 89881 
#S 0 89881 
#S 0 89881 
#S 0 89881 
37
146 147 8
147 9976 57
9976 1 12
9976 50015 35
29926 1 47
39901 1 119
41293 41298 116
41298 41293 60
41298 1 45
50015 1 32
59990 1 55
69965 1 34
74776 74777 41
74777 74780 186
74780 74838 45
74780 74894 80
74780 74783 60
74783 74837 33
74783 74777 34
74837 74777 76
74838 74776 32
74838 74777 27
74894 74895 56
74894 74837 30
74895 74837 45
74895 1 28
89881 1 75
0 147 43
0 146 3
0 1 23
0 29926 52
0 39901 136
0 41293 67
0 59990 46
0 69965 35
0 74776 32
0 89881 73