#gt10.kmer27.(2970000.2980000).V191.E262.mincyc2.e1.0
#construct-flow-graph.py -o graphs-g10-w10000-k27-cyc/ -g 10 -w 10000 -k 27 --mincycles 1 --nreads 5 --readlength 1000 --distribution lognormal11 --pdf
#kmersize=27
#windowsize=10000
#acyclic=False
#mincycles=1
#distribution=lognormal11
#ngenomes=10
#nreads=5
#readlength=1000
#outdir=graphs-g10-w10000-k27-cyc/
#pdf=True
#erroreps=1.0
#unique source is 0, unique sink is 1
#genomes: GCA_000005845.2_ASM584v2.fna GCA_000006665.1_ASM666v1.fna GCA_000007445.1_ASM744v1.fna GCA_000008865.2_ASM886v2.fna GCA_000009565.2_ASM956v1.fna GCA_000010245.1_ASM1024v1.fna GCA_000010385.1_ASM1038v1.fna GCA_000010485.1_ASM1048v1.fna GCA_000010745.1_ASM1074v1.fna GCA_000010765.1_ASM1076v1.fna 
# ground truth paths, in the format 'weight node1 node2 node3 ... '
#T 11 0 1345 1346 9976 1 
#T 26 0 1 
#T 16 0 24016 24017 24144 24177 24210 24270 24318 24363 24431 24472 24543 24583 24682 24795 24807 24835 25008 25035 25098 25133 25194 25221 25240 25267 25305 25412 25422 25461 25535 25562 25897 25924 25939 25975 26008 26101 26191 26218 26297 26359 26380 26425 26464 26491 26500 26527 26560 26626 26731 26758 26759 26845 26926 26959 27044 27099 27124 27169 27195 27310 27319 27346 27358 27385 27443 27477 27478 27505 27535 27589 27616 27628 27718 27733 27774 27775 27835 27856 27883 27913 27940 27965 27999 28089 28116 28161 28188 28342 28383 28820 28871 28943 29032 29159 29186 29196 29240 29247 29276 29282 29323 29349 29376 29396 29450 29522 29549 29555 29603 29609 29664 29672 29786 29789 29816 29822 29861 29900 1 
#T 311 0 31602 31604 31705 31714 31602 31604 1 
#T 9 0 31705 31714 1 
#T 15 0 1346 9976 51207 1 
#T 324 0 24017 24144 51239 24177 24210 51298 24270 24318 51342 24363 24431 51382 24472 24543 51421 24583 24682 51533 24795 24807 51560 24835 25008 51586 25035 25098 51620 25133 25194 51646 25221 25240 51672 25267 25305 51778 25412 25422 51816 25461 25535 51842 25562 25897 51868 25924 25939 51903 25975 26008 51995 26101 26191 52021 26218 26297 52082 26359 26380 52126 26425 26464 52152 26491 26500 52178 26527 26560 52243 26626 26731 52269 26758 26759 52354 26845 26926 52386 26959 27044 52616 27099 27124 52660 27169 27195 52774 27310 27319 52800 27346 27358 52826 27385 27443 52859 27477 27478 52885 27505 52914 27535 27589 52940 27616 27628 53029 27718 27733 53069 27774 27775 53128 27835 27856 53154 27883 27913 53180 27940 27965 53213 27999 28089 53239 28116 28161 53265 28188 28342 53305 28383 28820 53355 28871 28943 53443 29032 29159 53469 29186 29196 53512 29240 29247 53540 29276 29282 53580 29323 29349 53606 29376 29396 53659 29450 29522 53685 29549 29555 53732 29603 29609 53786 29664 29672 53899 29786 29789 53925 29816 29822 53963 29861 29900 57878 1 
#T 28 0 67853 1 
#T 29 0 69708 69758 69708 69758 1 
#T 17 0 87752 1 
# subpath constraints, in the format 'node1 node2 node3 ... '
# 0 subpath constraints for genome
#S 0 1345 1346 9976 
#S 1346 9976 
#S 1346 9976 
#S 1346 9976 
#S 1346 9976 
# 1 subpath constraints for genome
#S 0 1 
#S 0 1 
#S 0 1 
#S 0 1 
#S 0 1 
# 2 subpath constraints for genome
#S 0 24016 
#S 0 24016 
#S 24583 24682 24795 24807 24835 25008 25035 25098 25133 25194 25221 25240 25267 25305 25412 25422 25461 25535 25562 25897 
#S 29450 29522 29549 29555 29603 29609 29664 29672 29786 29789 29816 29822 29861 29900 1 
#S 0 24016 
# 3 subpath constraints for genome
#S 31604 1 
#S 0 31602 31604 31705 31714 31602 31604 1 
#S 31604 1 
#S 31604 1 
#S 31604 1 
# 4 subpath constraints for genome
#S 0 31705 
#S 0 31705 
#S 31714 1 
#S 0 31705 
#S 0 31705 
# 5 subpath constraints for genome
#S 1346 9976 51207 
#S 1346 9976 
#S 9976 51207 
#S 9976 51207 
#S 1346 9976 
# 6 subpath constraints for genome
#S 25562 25897 51868 25924 25939 51903 25975 26008 51995 26101 26191 52021 26218 26297 52082 26359 26380 52126 26425 26464 52152 26491 26500 52178 26527 26560 52243 26626 26731 
#S 29900 57878 
#S 29900 57878 
#S 24835 25008 51586 25035 25098 51620 25133 25194 51646 25221 25240 51672 25267 25305 51778 25412 25422 51816 25461 25535 51842 25562 25897 51868 25924 25939 51903 25975 26008 
#S 24177 24210 51298 24270 24318 51342 24363 24431 51382 24472 24543 51421 24583 24682 51533 24795 24807 51560 24835 25008 51586 25035 25098 51620 25133 25194 51646 
# 7 subpath constraints for genome
#S 0 67853 
#S 0 67853 
#S 0 67853 
#S 0 67853 
#S 0 67853 
# 8 subpath constraints for genome
#S 69758 1 
#S 0 69708 
#S 69758 1 
#S 69758 1 
#S 0 69708 69758 69708 69758 1 
# 9 subpath constraints for genome
#S 0 87752 
#S 0 87752 
#S 0 87752 
#S 0 87752 
#S 0 87752 
262
1345 1346 12
1346 9976 23
9976 1 9
9976 51207 18
24016 24017 23
24017 24144 352
24144 24177 16
24144 51239 322
24177 24210 359
24210 24270 15
24210 51298 301
24270 24318 361
24318 24363 17
24318 51342 345
24363 24431 322
24431 24472 22
24431 51382 342
24472 24543 339
24543 24583 7
24543 51421 306
24583 24682 344
24682 24795 19
24682 51533 328
24795 24807 320
24807 24835 13
24807 51560 315
24835 25008 347
25008 25035 17
25008 51586 352
25035 25098 319
25098 25133 19
25098 51620 350
25133 25194 336
25194 25221 21
25194 51646 340
25221 25240 359
25240 25267 16
25240 51672 364
25267 25305 351
25305 25412 9
25305 51778 321
25412 25422 362
25422 25461 23
25422 51816 303
25461 25535 340
25535 25562 18
25535 51842 308
25562 25897 342
25897 25924 20
25897 51868 313
25924 25939 350
25939 25975 13
25939 51903 292
25975 26008 330
26008 26101 9
26008 51995 351
26101 26191 370
26191 26218 18
26191 52021 327
26218 26297 314
26297 26359 18
26297 52082 292
26359 26380 313
26380 26425 21
26380 52126 304
26425 26464 341
26464 26491 17
26464 52152 314
26491 26500 305
26500 26527 17
26500 52178 348
26527 26560 323
26560 26626 18
26560 52243 311
26626 26731 369
26731 26758 16
26731 52269 293
26758 26759 342
26759 26845 18
26759 52354 334
26845 26926 324
26926 26959 16
26926 52386 293
26959 27044 347
27044 27099 16
27044 52616 298
27099 27124 323
27124 27169 17
27124 52660 282
27169 27195 351
27195 27310 12
27195 52774 327
27310 27319 348
27319 27346 10
27319 52800 342
27346 27358 341
27358 27385 21
27358 52826 335
27385 27443 370
27443 27477 28
27443 52859 323
27477 27478 309
27478 27505 12
27478 52885 310
27505 27535 13
27505 52914 317
27535 27589 344
27589 27616 14
27589 52940 330
27616 27628 332
27628 27718 14
27628 53029 345
27718 27733 338
27733 27774 17
27733 53069 328
27774 27775 319
27775 27835 15
27775 53128 320
27835 27856 346
27856 27883 19
27856 53154 321
27883 27913 362
27913 27940 17
27913 53180 301
27940 27965 371
27965 27999 12
27965 53213 324
27999 28089 322
28089 28116 14
28089 53239 336
28116 28161 338
28161 28188 23
28161 53265 317
28188 28342 361
28342 28383 13
28342 53305 309
28383 28820 363
28820 28871 8
28820 53355 325
28871 28943 340
28943 29032 11
28943 53443 295
29032 29159 332
29159 29186 21
29159 53469 306
29186 29196 342
29196 29240 14
29196 53512 301
29240 29247 351
29247 29276 14
29247 53540 334
29276 29282 343
29282 29323 16
29282 53580 326
29323 29349 339
29349 29376 10
29349 53606 317
29376 29396 315
29396 29450 20
29396 53659 339
29450 29522 376
29522 29549 13
29522 53685 325
29549 29555 332
29555 29603 19
29555 53732 327
29603 29609 338
29609 29664 16
29609 53786 310
29664 29672 299
29672 29786 10
29672 53899 294
29786 29789 326
29789 29816 18
29789 53925 308
29816 29822 363
29822 29861 14
29822 53963 314
29861 29900 322
29900 1 17
29900 57878 330
31602 31604 676
31604 31705 288
31604 1 301
31705 31714 310
31714 31602 275
31714 1 5
51207 1 13
51239 24177 319
51298 24270 323
51342 24363 318
51382 24472 307
51421 24583 330
51533 24795 337
51560 24835 307
51586 25035 310
51620 25133 294
51646 25221 324
51672 25267 289
51778 25412 317
51816 25461 311
51842 25562 325
51868 25924 316
51903 25975 324
51995 26101 349
52021 26218 327
52082 26359 306
52126 26425 310
52152 26491 320
52178 26527 322
52243 26626 330
52269 26758 306
52354 26845 302
52386 26959 307
52616 27099 331
52660 27169 323
52774 27310 328
52800 27346 330
52826 27385 313
52859 27477 337
52885 27505 369
52914 27535 331
52940 27616 326
53029 27718 326
53069 27774 300
53128 27835 328
53154 27883 371
53180 27940 335
53213 27999 330
53239 28116 324
53265 28188 314
53305 28383 300
53355 28871 339
53443 29032 357
53469 29186 317
53512 29240 297
53540 29276 328
53580 29323 323
53606 29376 314
53659 29450 348
53685 29549 313
53732 29603 335
53786 29664 317
53899 29786 331
53925 29816 335
53963 29861 326
57878 1 310
67853 1 18
69708 69758 54
69758 69708 27
69758 1 26
87752 1 19
0 1346 13
0 24017 290
0 1345 12
0 1 25
0 24016 17
0 31602 310
0 31705 11
0 67853 28
0 69708 30
0 87752 14