#gt10.kmer27.(1960000.1970000).V116.E161.mincyc1.e1.0
#construct-flow-graph.py -o graphs-g10-w10000-k27-cyc/ -g 10 -w 10000 -k 27 --mincycles 1 --nreads 5 --readlength 1000 --distribution lognormal11 --pdf
#kmersize=27
#windowsize=10000
#acyclic=False
#mincycles=1
#distribution=lognormal11
#ngenomes=10
#nreads=5
#readlength=1000
#outdir=graphs-g10-w10000-k27-cyc/
#pdf=True
#erroreps=1.0
#unique source is 0, unique sink is 1
#genomes: GCA_000005845.2_ASM584v2.fna GCA_000006665.1_ASM666v1.fna GCA_000007445.1_ASM744v1.fna GCA_000008865.2_ASM886v2.fna GCA_000009565.2_ASM956v1.fna GCA_000010245.1_ASM1024v1.fna GCA_000010385.1_ASM1038v1.fna GCA_000010485.1_ASM1048v1.fna GCA_000010745.1_ASM1074v1.fna GCA_000010765.1_ASM1076v1.fna 
# ground truth paths, in the format 'weight node1 node2 node3 ... '
#T 10 0 2 8262 9976 1 
#T 29 0 1 
#T 151 0 29926 1 
#T 9 0 39901 1 
#T 26 0 39902 39903 39930 39962 39989 40026 40053 40154 40205 40274 40301 40304 40349 40367 40394 40415 40442 40472 40499 40526 40538 40565 40574 40640 40658 40697 40721 40748 40796 40823 40850 40877 40880 40907 40925 40952 41012 41060 41075 41108 41111 41138 41225 41228 41255 41306 41333 41369 41402 41432 41459 41492 41519 41538 41565 41571 41661 41720 41782 41812 41839 41975 42002 42095 42140 42158 42188 42209 44889 44949 44889 44949 1 
#T 149 0 51529 2 8262 1 
#T 31 0 61504 1 
#T 15 0 69171 39902 39903 69197 39930 39962 69223 39989 40026 69249 40053 40154 69299 40205 40274 69325 40301 40304 69369 40349 40367 69395 40394 40415 69421 40442 40472 69447 40499 69473 40526 40538 69499 40565 40574 69564 40640 40658 69602 40697 40721 69628 40748 40796 69654 40823 40850 69680 40877 40880 69706 40907 40925 69732 40952 41012 69779 41060 41075 69811 41108 41111 69837 41138 69923 41225 41228 69949 41255 41306 69975 41333 41369 70007 41402 41432 70033 41459 41492 70059 41519 41538 70085 41565 41571 70174 41661 41720 70235 41782 41812 70261 41839 41975 70287 42002 42095 70331 42140 42158 70360 42188 42209 1 
#T 72 0 80335 1 
#T 15 0 90310 1 
# subpath constraints, in the format 'node1 node2 node3 ... '
# 0 subpath constraints for genome
#S 2 8262 
#S 2 8262 
#S 2 8262 
#S 2 8262 
#S 2 8262 
# 1 subpath constraints for genome
#S 0 1 
#S 0 1 
#S 0 1 
#S 0 1 
#S 0 1 
# 2 subpath constraints for genome
#S 0 29926 
#S 0 29926 
#S 0 29926 
#S 0 29926 
#S 0 29926 
# 3 subpath constraints for genome
#S 0 39901 
#S 0 39901 
#S 0 39901 
#S 0 39901 
#S 0 39901 
# 4 subpath constraints for genome
#S 44949 1 
#S 44949 1 
#S 42209 44889 44949 44889 
#S 42209 44889 
#S 41255 41306 41333 41369 41402 41432 41459 41492 41519 41538 41565 41571 41661 41720 41782 41812 41839 41975 42002 42095 42140 42158 42188 42209 44889 
# 5 subpath constraints for genome
#S 2 8262 
#S 2 8262 
#S 2 8262 
#S 2 8262 
#S 2 8262 
# 6 subpath constraints for genome
#S 0 61504 
#S 0 61504 
#S 0 61504 
#S 0 61504 
#S 0 61504 
# 7 subpath constraints for genome
#S 0 69171 
#S 0 69171 
#S 0 69171 
#S 0 69171 
#S 0 69171 
# 8 subpath constraints for genome
#S 0 80335 
#S 0 80335 
#S 0 80335 
#S 0 80335 
#S 0 80335 
# 9 subpath constraints for genome
#S 0 90310 
#S 0 90310 
#S 0 90310 
#S 0 90310 
#S 0 90310 
161
2 8262 152
8262 1 175
8262 9976 7
9976 1 8
29926 1 151
39901 1 5
39902 39903 38
39903 39930 29
39903 69197 9
39930 39962 39
39962 39989 35
39962 69223 18
39989 40026 36
40026 40053 31
40026 69249 14
40053 40154 32
40154 40205 28
40154 69299 19
40205 40274 41
40274 40301 34
40274 69325 7
40301 40304 47
40304 40349 27
40304 69369 12
40349 40367 33
40367 40394 21
40367 69395 20
40394 40415 43
40415 40442 27
40415 69421 22
40442 40472 49
40472 40499 30
40472 69447 14
40499 40526 24
40499 69473 13
40526 40538 50
40538 40565 30
40538 69499 12
40565 40574 34
40574 40640 26
40574 69564 11
40640 40658 48
40658 40697 23
40658 69602 14
40697 40721 41
40721 40748 23
40721 69628 16
40748 40796 43
40796 40823 34
40796 69654 15
40823 40850 34
40850 40877 29
40850 69680 12
40877 40880 47
40880 40907 27
40880 69706 17
40907 40925 28
40925 40952 24
40925 69732 16
40952 41012 42
41012 41060 22
41012 69779 20
41060 41075 46
41075 41108 28
41075 69811 12
41108 41111 50
41111 41138 24
41111 69837 5
41138 41225 28
41138 69923 16
41225 41228 39
41228 41255 23
41228 69949 16
41255 41306 30
41306 41333 28
41306 69975 15
41333 41369 53
41369 41402 30
41369 70007 13
41402 41432 46
41432 41459 20
41432 70033 7
41459 41492 33
41492 41519 21
41492 70059 21
41519 41538 39
41538 41565 22
41538 70085 14
41565 41571 43
41571 41661 27
41571 70174 10
41661 41720 39
41720 41782 37
41720 70235 9
41782 41812 46
41812 41839 35
41812 70261 18
41839 41975 49
41975 42002 29
41975 70287 17
42002 42095 41
42095 42140 36
42095 70331 15
42140 42158 50
42158 42188 35
42158 70360 18
42188 42209 38
42209 1 18
42209 44889 33
44889 44949 47
44949 44889 24
44949 1 31
51529 2 151
61504 1 28
69171 39902 15
69197 39930 10
69223 39989 8
69249 40053 17
69299 40205 18
69325 40301 20
69369 40349 17
69395 40394 9
69421 40442 14
69447 40499 15
69473 40526 14
69499 40565 14
69564 40640 14
69602 40697 12
69628 40748 13
69654 40823 12
69680 40877 20
69706 40907 19
69732 40952 15
69779 41060 19
69811 41108 11
69837 41138 11
69923 41225 18
69949 41255 9
69975 41333 19
70007 41402 16
70033 41459 12
70059 41519 12
70085 41565 17
70174 41661 22
70235 41782 14
70261 41839 7
70287 42002 15
70331 42140 15
70360 42188 26
80335 1 75
90310 1 10
0 2 7
0 39902 26
0 1 33
0 29926 139
0 39901 6
0 51529 128
0 61504 29
0 69171 16
0 80335 69
0 90310 14