#gt10.kmer27.(630000.640000).V166.E228.mincyc16.e1.0
#construct-flow-graph.py -o graphs-g10-w10000-k27-cyc/ -g 10 -w 10000 -k 27 --mincycles 1 --nreads 5 --readlength 1000 --distribution lognormal11 --pdf
#kmersize=27
#windowsize=10000
#acyclic=False
#mincycles=1
#distribution=lognormal11
#ngenomes=10
#nreads=5
#readlength=1000
#outdir=graphs-g10-w10000-k27-cyc/
#pdf=True
#erroreps=1.0
#unique source is 0, unique sink is 1
#genomes: GCA_000005845.2_ASM584v2.fna GCA_000006665.1_ASM666v1.fna GCA_000007445.1_ASM744v1.fna GCA_000008865.2_ASM886v2.fna GCA_000009565.2_ASM956v1.fna GCA_000010245.1_ASM1024v1.fna GCA_000010385.1_ASM1038v1.fna GCA_000010485.1_ASM1048v1.fna GCA_000010745.1_ASM1074v1.fna GCA_000010765.1_ASM1076v1.fna 
# ground truth paths, in the format 'weight node1 node2 node3 ... '
#T 68 0 778 779 9976 1 
#T 25 0 9977 12288 12315 19644 19951 1 
#T 11 0 26958 26973 27000 27012 27039 27051 27078 27097 27168 27219 27285 27444 27471 27474 27534 27648 27675 27708 27735 27738 27767 27777 27804 27810 27837 27840 27884 27903 27951 27955 27982 28035 28089 28116 28185 28203 28230 28239 28302 28305 28354 28360 28389 28411 28480 28525 28552 28645 28672 28777 28804 28890 28917 29077 29104 29117 29144 29292 29319 29356 29433 29481 29586 29589 29616 29635 29662 29763 29799 29859 29886 29926 1 
#T 19 0 30233 9977 12288 30259 12315 19644 1 
#T 30 0 1 
#T 41 0 779 9976 41011 1 
#T 57 0 50986 1 
#T 138 0 60961 1 
#T 75 0 60962 61042 61069 61136 61163 61429 61456 61711 61744 61840 61867 62065 62092 62096 62134 62318 62345 62486 62513 62521 26958 26973 63159 27000 27012 63185 27039 27051 63211 27078 27097 63281 27168 27219 63346 27285 27444 63372 27471 27474 63431 27534 27648 63457 27675 27708 63483 27735 27738 63511 27767 27777 63537 27804 27810 63563 27837 27840 63606 27884 27903 63653 27951 27955 63679 27982 28035 63732 28089 28116 63800 28185 28203 63826 28230 28239 63888 28302 28305 63936 28354 28360 63964 28389 28411 64032 28480 28525 64058 28552 28645 64084 28672 28777 64110 28804 28890 64136 28917 29077 64162 29104 29117 64188 29144 29292 64214 29319 29356 64290 29433 29481 64394 29586 29589 64420 29616 29635 64446 29662 29763 64481 29799 29859 64507 29886 29926 69341 1 
#T 46 0 70466 70528 70555 70618 70645 70662 70689 70717 70744 70754 70466 70528 74844 70555 70618 74870 70645 70662 74896 70689 70717 74922 70744 70754 60962 61042 77597 61069 61136 77623 61163 61429 77649 61456 61711 77681 61744 61840 77707 61867 62065 77733 62092 62096 77770 62134 62318 77796 62345 62486 77822 62513 62521 1 
# subpath constraints, in the format 'node1 node2 node3 ... '
# 0 subpath constraints for genome
#S 779 9976 
#S 779 9976 
#S 779 9976 
#S 779 9976 
#S 779 9976 
# 1 subpath constraints for genome
#S 9977 12288 
#S 12315 19644 
#S 12315 19644 
#S 12315 19644 
#S 12315 19644 
# 2 subpath constraints for genome
#S 0 26958 
#S 0 26958 
#S 0 26958 
#S 0 26958 
#S 27474 27534 27648 27675 27708 27735 27738 27767 27777 27804 27810 27837 27840 27884 27903 27951 27955 27982 28035 28089 28116 28185 28203 28230 28239 28302 28305 28354 28360 28389 28411 28480 28525 28552 
# 3 subpath constraints for genome
#S 12315 19644 
#S 12315 19644 
#S 12315 19644 
#S 9977 12288 
#S 12315 19644 
# 4 subpath constraints for genome
#S 0 1 
#S 0 1 
#S 0 1 
#S 0 1 
#S 0 1 
# 5 subpath constraints for genome
#S 779 9976 
#S 779 9976 
#S 779 9976 
#S 779 9976 
#S 779 9976 
# 6 subpath constraints for genome
#S 0 50986 
#S 0 50986 
#S 0 50986 
#S 0 50986 
#S 0 50986 
# 7 subpath constraints for genome
#S 0 60961 
#S 0 60961 
#S 0 60961 
#S 0 60961 
#S 0 60961 
# 8 subpath constraints for genome
#S 29662 29763 64481 29799 29859 64507 29886 29926 69341 
#S 27534 27648 63457 27675 27708 63483 27735 27738 63511 27767 27777 63537 27804 27810 63563 27837 27840 63606 27884 27903 63653 27951 27955 63679 27982 28035 63732 28089 28116 63800 28185 28203 63826 28230 28239 63888 28302 28305 63936 28354 28360 63964 28389 28411 64032 28480 28525 64058 28552 28645 
#S 29926 69341 
#S 62521 26958 26973 63159 27000 27012 63185 27039 27051 63211 27078 27097 63281 27168 27219 63346 27285 27444 63372 27471 27474 63431 
#S 28305 63936 28354 28360 63964 28389 28411 64032 28480 28525 64058 28552 28645 64084 28672 28777 64110 28804 28890 64136 28917 29077 64162 29104 29117 64188 29144 29292 64214 29319 29356 
# 9 subpath constraints for genome
#S 70754 60962 
#S 70754 60962 
#S 70754 60962 61042 77597 61069 61136 77623 61163 61429 
#S 70754 70466 
#S 70754 70466 
228
778 779 66
779 9976 114
9976 1 59
9976 41011 34
9977 12288 50
12288 12315 30
12288 30259 18
12315 19644 30
19644 1 18
19644 19951 27
19951 1 25
26958 26973 96
26973 27000 12
26973 63159 96
27000 27012 73
27012 27039 12
27012 63185 82
27039 27051 92
27051 27078 11
27051 63211 86
27078 27097 88
27097 27168 10
27097 63281 73
27168 27219 80
27219 27285 9
27219 63346 75
27285 27444 76
27444 27471 10
27444 63372 67
27471 27474 91
27474 27534 12
27474 63431 73
27534 27648 75
27648 27675 4
27648 63457 69
27675 27708 77
27708 27735 12
27708 63483 72
27735 27738 100
27738 27767 7
27738 63511 64
27767 27777 70
27777 27804 6
27777 63537 87
27804 27810 90
27810 27837 14
27810 63563 76
27837 27840 83
27840 27884 8
27840 63606 62
27884 27903 90
27903 27951 9
27903 63653 83
27951 27955 81
27955 27982 14
27955 63679 76
27982 28035 90
28035 28089 11
28035 63732 78
28089 28116 86
28116 28185 12
28116 63800 88
28185 28203 89
28203 28230 10
28203 63826 66
28230 28239 111
28239 28302 16
28239 63888 71
28302 28305 77
28305 28354 7
28305 63936 76
28354 28360 79
28360 28389 10
28360 63964 83
28389 28411 92
28411 28480 13
28411 64032 88
28480 28525 90
28525 28552 16
28525 64058 80
28552 28645 92
28645 28672 11
28645 64084 77
28672 28777 83
28777 28804 15
28777 64110 83
28804 28890 77
28890 28917 13
28890 64136 70
28917 29077 85
29077 29104 14
29077 64162 67
29104 29117 87
29117 29144 12
29117 64188 78
29144 29292 97
29292 29319 17
29292 64214 64
29319 29356 89
29356 29433 11
29356 64290 84
29433 29481 68
29481 29586 12
29481 64394 77
29586 29589 77
29589 29616 9
29589 64420 70
29616 29635 76
29635 29662 12
29635 64446 91
29662 29763 85
29763 29799 13
29763 64481 63
29799 29859 97
29859 29886 18
29859 64507 71
29886 29926 85
29926 1 15
29926 69341 74
30233 9977 23
30259 12315 20
41011 1 37
50986 1 40
60961 1 153
60962 61042 123
61042 61069 78
61042 77597 59
61069 61136 109
61136 61163 73
61136 77623 65
61163 61429 141
61429 61456 77
61429 77649 45
61456 61711 144
61711 61744 87
61711 77681 47
61744 61840 110
61840 61867 81
61840 77707 54
61867 62065 117
62065 62092 83
62065 77733 36
62092 62096 130
62096 62134 65
62096 77770 48
62134 62318 125
62318 62345 76
62318 77796 48
62345 62486 132
62486 62513 71
62486 77822 45
62513 62521 126
62521 1 40
62521 26958 79
63159 27000 90
63185 27039 76
63211 27078 66
63281 27168 81
63346 27285 72
63372 27471 69
63431 27534 79
63457 27675 83
63483 27735 91
63511 27767 80
63537 27804 61
63563 27837 75
63606 27884 74
63653 27951 82
63679 27982 87
63732 28089 77
63800 28185 69
63826 28230 71
63888 28302 73
63936 28354 78
63964 28389 70
64032 28480 82
64058 28552 74
64084 28672 77
64110 28804 72
64136 28917 84
64162 29104 82
64188 29144 79
64214 29319 78
64290 29433 74
64394 29586 75
64420 29616 91
64446 29662 66
64481 29799 81
64507 29886 72
69341 1 81
70466 70528 96
70528 70555 40
70528 74844 52
70555 70618 105
70618 70645 51
70618 74870 32
70645 70662 91
70662 70689 45
70662 74896 51
70689 70717 97
70717 70744 43
70717 74922 40
70744 70754 96
70754 70466 45
70754 60962 44
74844 70555 55
74870 70645 50
74896 70689 51
74922 70744 39
77597 61069 34
77623 61163 52
77649 61456 42
77681 61744 39
77707 61867 48
77733 62092 40
77770 62134 50
77796 62345 43
77822 62513 44
0 9977 32
0 779 58
0 60962 73
0 778 58
0 26958 14
0 30233 17
0 1 31
0 50986 58
0 60961 137
0 70466 56