#gt10.kmer27.(2120000.2130000).V52.E75.mincyc2.e1.0
#construct-flow-graph.py -o graphs-g10-w10000-k27-cyc/ -g 10 -w 10000 -k 27 --mincycles 1 --nreads 5 --readlength 1000 --distribution lognormal11 --pdf
#kmersize=27
#windowsize=10000
#acyclic=False
#mincycles=1
#distribution=lognormal11
#ngenomes=10
#nreads=5
#readlength=1000
#outdir=graphs-g10-w10000-k27-cyc/
#pdf=True
#erroreps=1.0
#unique source is 0, unique sink is 1
#genomes: GCA_000005845.2_ASM584v2.fna GCA_000006665.1_ASM666v1.fna GCA_000007445.1_ASM744v1.fna GCA_000008865.2_ASM886v2.fna GCA_000009565.2_ASM956v1.fna GCA_000010245.1_ASM1024v1.fna GCA_000010385.1_ASM1038v1.fna GCA_000010485.1_ASM1048v1.fna GCA_000010745.1_ASM1074v1.fna GCA_000010765.1_ASM1076v1.fna 
# ground truth paths, in the format 'weight node1 node2 node3 ... '
#T 4 0 2 7839 9976 1 
#T 32 0 9977 10072 10141 10160 10210 10240 10336 10351 10417 10422 10545 10564 10602 10627 10708 10747 10785 10802 12098 12104 12152 12159 13274 13295 1 
#T 189 0 1 
#T 23 0 39901 1 
#T 15 0 49876 1 
#T 86 0 50478 50490 50519 50527 50478 50490 50601 50519 50527 2 7839 1 
#T 60 0 58491 9977 10072 58559 10141 10160 58608 10210 10240 58703 10336 10351 58768 10417 10422 58788 10545 10564 58825 10602 10627 58905 10708 10747 58942 10785 10802 60258 12098 12104 60305 12152 12159 61425 13274 13295 61656 1 
#T 110 0 71631 1 
#T 220 0 81606 1 
#T 4 0 91581 1 
# subpath constraints, in the format 'node1 node2 node3 ... '
# 0 subpath constraints for genome
#S 7839 9976 
#S 2 7839 
#S 2 7839 
#S 2 7839 
#S 2 7839 
# 1 subpath constraints for genome
#S 13295 1 
#S 13295 1 
#S 10802 12098 12104 12152 12159 13274 
#S 13295 1 
#S 13295 1 
# 2 subpath constraints for genome
#S 0 1 
#S 0 1 
#S 0 1 
#S 0 1 
#S 0 1 
# 3 subpath constraints for genome
#S 0 39901 
#S 0 39901 
#S 0 39901 
#S 0 39901 
#S 0 39901 
# 4 subpath constraints for genome
#S 0 49876 
#S 0 49876 
#S 0 49876 
#S 0 49876 
#S 0 49876 
# 5 subpath constraints for genome
#S 0 50478 50490 50519 50527 50478 50490 50601 50519 50527 2 
#S 2 7839 
#S 2 7839 
#S 2 7839 
#S 2 7839 
# 6 subpath constraints for genome
#S 0 58491 
#S 12159 61425 13274 13295 61656 
#S 10802 60258 12098 12104 60305 12152 12159 61425 
#S 0 58491 
#S 0 58491 
# 7 subpath constraints for genome
#S 0 71631 
#S 0 71631 
#S 0 71631 
#S 0 71631 
#S 0 71631 
# 8 subpath constraints for genome
#S 0 81606 
#S 0 81606 
#S 0 81606 
#S 0 81606 
#S 0 81606 
# 9 subpath constraints for genome
#S 0 91581 
#S 0 91581 
#S 0 91581 
#S 0 91581 
#S 0 91581 
75
2 7839 98
7839 1 59
7839 9976 2
9976 1 4
9977 10072 89
10072 10141 34
10072 58559 42
10141 10160 106
10160 10210 29
10160 58608 56
10210 10240 99
10240 10336 41
10240 58703 70
10336 10351 103
10351 10417 30
10351 58768 61
10417 10422 83
10422 10545 24
10422 58788 53
10545 10564 84
10564 10602 25
10564 58825 46
10602 10627 97
10627 10708 37
10627 58905 47
10708 10747 99
10747 10785 31
10747 58942 60
10785 10802 79
10802 12098 38
10802 60258 65
12098 12104 98
12104 12152 24
12104 60305 83
12152 12159 97
12159 13274 33
12159 61425 64
13274 13295 97
13295 1 29
13295 61656 65
39901 1 25
49876 1 10
50478 50490 202
50490 50519 103
50490 50601 84
50519 50527 176
50527 50478 96
50527 2 81
50601 50519 87
58491 9977 63
58559 10141 57
58608 10210 57
58703 10336 62
58768 10417 56
58788 10545 47
58825 10602 65
58905 10708 64
58942 10785 58
60258 12098 53
60305 12152 57
61425 13274 59
61656 1 53
71631 1 107
81606 1 240
91581 1 7
0 2 2
0 9977 31
0 1 176
0 39901 22
0 49876 17
0 50478 100
0 58491 70
0 71631 116
0 81606 238
0 91581 1