#gt10.kmer27.(4440000.4450000).V43.E64.mincyc17.e1.0
#construct-flow-graph.py -o graphs-g10-w10000-k27-cyc/ -g 10 -w 10000 -k 27 --mincycles 1 --nreads 5 --readlength 1000 --distribution lognormal11 --pdf
#kmersize=27
#windowsize=10000
#acyclic=False
#mincycles=1
#distribution=lognormal11
#ngenomes=10
#nreads=5
#readlength=1000
#outdir=graphs-g10-w10000-k27-cyc/
#pdf=True
#erroreps=1.0
#unique source is 0, unique sink is 1
#genomes: GCA_000005845.2_ASM584v2.fna GCA_000006665.1_ASM666v1.fna GCA_000007445.1_ASM744v1.fna GCA_000008865.2_ASM886v2.fna GCA_000009565.2_ASM956v1.fna GCA_000010245.1_ASM1024v1.fna GCA_000010385.1_ASM1038v1.fna GCA_000010485.1_ASM1048v1.fna GCA_000010745.1_ASM1074v1.fna GCA_000010765.1_ASM1076v1.fna 
# ground truth paths, in the format 'weight node1 node2 node3 ... '
#T 16 0 2 5296 9976 1 
#T 41 0 19585 19591 19585 19591 1 
#T 7 0 26471 26472 26526 26557 26863 26890 27575 27602 27619 27695 27742 27770 27781 1 
#T 36 0 1 
#T 207 0 49869 1 
#T 26 0 54549 2 5296 1 
#T 8 0 26472 26526 54577 26557 26863 54603 26890 27575 54629 27602 27619 54703 27695 27742 54730 27770 27781 63398 1 
#T 43 0 73373 1 
#T 70 0 83348 1 
#T 39 0 87601 87606 87661 87670 87697 87699 87742 87769 87805 87601 87606 87909 87661 87670 87935 87697 87699 87956 87742 87982 87769 87805 1 
# subpath constraints, in the format 'node1 node2 node3 ... '
# 0 subpath constraints for genome
#S 5296 9976 
#S 5296 9976 
#S 2 5296 
#S 5296 9976 
#S 2 5296 9976 
# 1 subpath constraints for genome
#S 0 19585 
#S 0 19585 
#S 0 19585 
#S 0 19585 
#S 0 19585 
# 2 subpath constraints for genome
#S 0 26471 
#S 0 26471 
#S 27619 27695 27742 27770 27781 1 
#S 27781 1 
#S 0 26471 26472 26526 26557 26863 26890 27575 
# 3 subpath constraints for genome
#S 0 1 
#S 0 1 
#S 0 1 
#S 0 1 
#S 0 1 
# 4 subpath constraints for genome
#S 0 49869 
#S 0 49869 
#S 0 49869 
#S 0 49869 
#S 0 49869 
# 5 subpath constraints for genome
#S 0 54549 2 5296 
#S 2 5296 
#S 2 5296 
#S 0 54549 2 5296 
#S 0 54549 
# 6 subpath constraints for genome
#S 27781 63398 
#S 27781 63398 
#S 27781 63398 
#S 27781 63398 
#S 27781 63398 
# 7 subpath constraints for genome
#S 0 73373 
#S 0 73373 
#S 0 73373 
#S 0 73373 
#S 0 73373 
# 8 subpath constraints for genome
#S 0 83348 
#S 0 83348 
#S 0 83348 
#S 0 83348 
#S 0 83348 
# 9 subpath constraints for genome
#S 0 87601 
#S 87805 1 
#S 87805 1 
#S 0 87601 
#S 87805 1 
64
2 5296 52
5296 1 23
5296 9976 14
9976 1 19
19585 19591 73
19591 19585 40
19591 1 47
26471 26472 8
26472 26526 20
26526 26557 7
26526 54577 8
26557 26863 21
26863 26890 5
26863 54603 5
26890 27575 9
27575 27602 11
27575 54629 6
27602 27619 9
27619 27695 4
27619 54703 8
27695 27742 18
27742 27770 11
27742 54730 6
27770 27781 12
27781 1 4
27781 63398 9
49869 1 182
54549 2 28
54577 26557 11
54603 26890 12
54629 27602 7
54703 27695 14
54730 27770 8
63398 1 2
73373 1 40
83348 1 73
87601 87606 77
87606 87661 42
87606 87909 38
87661 87670 75
87670 87697 43
87670 87935 42
87697 87699 71
87699 87742 34
87699 87956 39
87742 87769 35
87742 87982 34
87769 87805 72
87805 87601 46
87805 1 45
87909 87661 43
87935 87697 32
87956 87742 34
87982 87769 29
0 2 12
0 26472 9
0 19585 43
0 26471 8
0 1 24
0 49869 210
0 54549 28
0 73373 45
0 83348 59
0 87601 44