#gt10.kmer27.(4130000.4140000).V78.E111.mincyc33.e1.0
#construct-flow-graph.py -o graphs-g10-w10000-k27-cyc/ -g 10 -w 10000 -k 27 --mincycles 1 --nreads 5 --readlength 1000 --distribution lognormal11 --pdf
#kmersize=27
#windowsize=10000
#acyclic=False
#mincycles=1
#distribution=lognormal11
#ngenomes=10
#nreads=5
#readlength=1000
#outdir=graphs-g10-w10000-k27-cyc/
#pdf=True
#erroreps=1.0
#unique source is 0, unique sink is 1
#genomes: GCA_000005845.2_ASM584v2.fna GCA_000006665.1_ASM666v1.fna GCA_000007445.1_ASM744v1.fna GCA_000008865.2_ASM886v2.fna GCA_000009565.2_ASM956v1.fna GCA_000010245.1_ASM1024v1.fna GCA_000010385.1_ASM1038v1.fna GCA_000010485.1_ASM1048v1.fna GCA_000010745.1_ASM1074v1.fna GCA_000010765.1_ASM1076v1.fna 
# ground truth paths, in the format 'weight node1 node2 node3 ... '
#T 3 0 8877 8878 8924 9014 9015 9042 9060 9087 9099 9126 9129 9291 9510 9534 9594 9621 9648 9761 9788 9815 9818 9857 9890 9935 9938 1 
#T 416 0 1 
#T 52 0 28593 28618 28686 28720 28773 28782 28814 28833 28861 28877 28904 28930 28593 28618 29142 28686 28720 29194 28773 28782 29225 28814 28833 29252 28861 28877 29278 28904 28930 1 
#T 21 0 39766 1 
#T 21 0 49741 1 
#T 11 0 59716 1 
#T 60 0 69691 1 
#T 21 0 8878 8924 69780 9014 9015 69806 9042 9060 69832 9087 9099 69858 9126 9129 70019 9291 70237 9510 9534 70296 9594 9621 70322 9648 9761 70348 9788 70374 9815 9818 70412 9857 9890 70456 9935 9938 79370 1 
#T 29 0 85256 85257 86364 86391 86443 86470 88918 88945 89199 89235 89345 1 
#T 80 0 85257 86364 89371 86391 86443 89397 86470 88918 89423 88945 89199 89458 89235 89345 92909 92914 92909 92914 1 
# subpath constraints, in the format 'node1 node2 node3 ... '
# 0 subpath constraints for genome
#S 0 8877 
#S 0 8877 
#S 9648 9761 9788 9815 9818 9857 9890 9935 9938 1 
#S 0 8877 
#S 8878 8924 9014 9015 9042 9060 9087 9099 9126 9129 9291 9510 9534 9594 9621 9648 9761 9788 9815 9818 9857 9890 9935 
# 1 subpath constraints for genome
#S 0 1 
#S 0 1 
#S 0 1 
#S 0 1 
#S 0 1 
# 2 subpath constraints for genome
#S 0 28593 
#S 0 28593 
#S 0 28593 
#S 0 28593 
#S 28593 28618 29142 28686 28720 29194 28773 28782 29225 28814 28833 29252 28861 28877 29278 28904 28930 1 
# 3 subpath constraints for genome
#S 0 39766 
#S 0 39766 
#S 0 39766 
#S 0 39766 
#S 0 39766 
# 4 subpath constraints for genome
#S 0 49741 
#S 0 49741 
#S 0 49741 
#S 0 49741 
#S 0 49741 
# 5 subpath constraints for genome
#S 0 59716 
#S 0 59716 
#S 0 59716 
#S 0 59716 
#S 0 59716 
# 6 subpath constraints for genome
#S 0 69691 
#S 0 69691 
#S 0 69691 
#S 0 69691 
#S 0 69691 
# 7 subpath constraints for genome
#S 9938 79370 
#S 9938 79370 
#S 9291 70237 9510 9534 70296 9594 9621 70322 9648 9761 70348 9788 70374 9815 9818 70412 9857 9890 70456 9935 9938 79370 
#S 9938 79370 
#S 9938 79370 
# 8 subpath constraints for genome
#S 0 85256 85257 86364 
#S 86470 88918 88945 89199 89235 
#S 88945 89199 89235 89345 
#S 85257 86364 86391 86443 86470 88918 
#S 0 85256 
# 9 subpath constraints for genome
#S 89345 92909 
#S 86470 88918 
#S 92914 1 
#S 89345 92909 92914 92909 
#S 92914 1 
111
8877 8878 8
8878 8924 24
8924 9014 5
8924 69780 26
9014 9015 27
9015 9042 2
9015 69806 21
9042 9060 26
9060 9087 2
9060 69832 26
9087 9099 26
9099 9126 1
9099 69858 17
9126 9129 20
9129 9291 1
9129 70019 20
9291 9510 4
9291 70237 18
9510 9534 27
9534 9594 1
9534 70296 24
9594 9621 35
9621 9648 2
9621 70322 23
9648 9761 15
9761 9788 4
9761 70348 20
9788 9815 2
9788 70374 27
9815 9818 21
9818 9857 7
9818 70412 24
9857 9890 31
9890 9935 4
9890 70456 21
9935 9938 22
9938 1 1
9938 79370 18
28593 28618 106
28618 28686 44
28618 29142 64
28686 28720 119
28720 28773 49
28720 29194 49
28773 28782 97
28782 28814 37
28782 29225 45
28814 28833 99
28833 28861 53
28833 29252 39
28861 28877 97
28877 28904 48
28877 29278 45
28904 28930 105
28930 28593 38
28930 1 54
29142 28686 50
29194 28773 62
29225 28814 41
29252 28861 53
29278 28904 61
39766 1 22
49741 1 23
59716 1 13
69691 1 51
69780 9014 22
69806 9042 16
69832 9087 16
69858 9126 15
70019 9291 17
70237 9510 26
70296 9594 22
70322 9648 20
70348 9788 20
70374 9815 24
70412 9857 16
70456 9935 31
79370 1 16
85256 85257 31
85257 86364 96
86364 86391 32
86364 89371 96
86391 86443 101
86443 86470 29
86443 89397 90
86470 88918 121
88918 88945 33
88918 89423 100
88945 89199 103
89199 89235 20
89199 89458 87
89235 89345 117
89345 1 27
89345 92909 68
89371 86391 71
89397 86470 79
89423 88945 70
89458 89235 74
92909 92914 158
92914 92909 85
92914 1 70
0 8878 29
0 85257 81
0 8877 6
0 1 432
0 28593 56
0 39766 26
0 49741 13
0 59716 19
0 69691 62
0 85256 32