#gt10.kmer27.(4210000.4220000).V122.E170.mincyc1.e1.0
#construct-flow-graph.py -o graphs-g10-w10000-k27-cyc/ -g 10 -w 10000 -k 27 --mincycles 1 --nreads 5 --readlength 1000 --distribution lognormal11 --pdf
#kmersize=27
#windowsize=10000
#acyclic=False
#mincycles=1
#distribution=lognormal11
#ngenomes=10
#nreads=5
#readlength=1000
#outdir=graphs-g10-w10000-k27-cyc/
#pdf=True
#erroreps=1.0
#unique source is 0, unique sink is 1
#genomes: GCA_000005845.2_ASM584v2.fna GCA_000006665.1_ASM666v1.fna GCA_000007445.1_ASM744v1.fna GCA_000008865.2_ASM886v2.fna GCA_000009565.2_ASM956v1.fna GCA_000010245.1_ASM1024v1.fna GCA_000010385.1_ASM1038v1.fna GCA_000010485.1_ASM1048v1.fna GCA_000010745.1_ASM1074v1.fna GCA_000010765.1_ASM1076v1.fna 
# ground truth paths, in the format 'weight node1 node2 node3 ... '
#T 189 0 24 2273 2300 6386 7773 7776 7872 7887 7914 7941 7968 7995 8022 8199 8244 8304 8349 8370 8435 8436 8437 8446 8447 8449 8562 8592 8651 8654 8732 8744 8780 8789 8861 8948 8990 9026 9086 9089 9137 9200 9242 9287 9314 9344 9350 9377 9548 9619 9632 9668 9742 9779 9878 9905 9976 1 
#T 19 0 1 
#T 122 0 8435 8436 8437 8446 8447 8437 8446 1 
#T 150 0 39878 1 
#T 42 0 49853 1 
#T 26 0 53465 24 2273 53491 2300 6386 1 
#T 14 0 63466 1 
#T 33 0 7773 7776 63582 7872 7887 63608 7914 7941 63634 7968 7995 63660 8022 8199 63704 8244 8304 63748 8349 8370 8436 8437 8446 8447 8449 63867 8562 8592 63925 8651 8654 64002 8732 8744 64037 8780 8789 64108 8861 8948 64149 8990 9026 64208 9086 9089 64255 9137 9200 64296 9242 9287 64322 9314 64351 9344 9350 64377 9377 9548 64447 9619 9632 64482 9668 9742 64518 9779 9878 64544 9905 9976 72352 1 
#T 11 0 78275 78276 80226 80253 80563 80590 81045 81075 81096 81126 81267 81294 81312 81366 81384 81461 81543 81570 81573 81618 81708 81751 81769 81796 82327 1 
#T 32 0 78276 80226 82353 80253 80563 82379 80590 81045 82408 81075 81096 82437 81126 81267 82463 81294 81312 82516 81366 81384 82592 81461 81543 82618 81570 81573 82662 81618 81708 82704 81751 81769 82730 81796 82327 88653 1 
# subpath constraints, in the format 'node1 node2 node3 ... '
# 0 subpath constraints for genome
#S 24 2273 2300 6386 
#S 6386 7773 7776 7872 7887 7914 7941 7968 7995 8022 8199 8244 8304 8349 8370 8435 8436 8437 8446 8447 8449 8562 8592 8651 
#S 2300 6386 
#S 9026 9086 9089 9137 9200 9242 9287 9314 9344 9350 9377 9548 9619 9632 9668 9742 9779 9878 9905 9976 
#S 8449 8562 8592 8651 8654 8732 8744 8780 8789 8861 8948 8990 9026 9086 9089 9137 9200 9242 9287 9314 9344 9350 9377 9548 9619 
# 1 subpath constraints for genome
#S 0 1 
#S 0 1 
#S 0 1 
#S 0 1 
#S 0 1 
# 2 subpath constraints for genome
#S 8446 1 
#S 8446 1 
#S 8447 8437 
#S 8447 8437 8446 1 
#S 0 8435 8436 8437 8446 8447 8437 
# 3 subpath constraints for genome
#S 0 39878 
#S 0 39878 
#S 0 39878 
#S 0 39878 
#S 0 39878 
# 4 subpath constraints for genome
#S 0 49853 
#S 0 49853 
#S 0 49853 
#S 0 49853 
#S 0 49853 
# 5 subpath constraints for genome
#S 2300 6386 
#S 0 53465 
#S 2300 6386 
#S 2300 6386 
#S 24 2273 53491 2300 6386 
# 6 subpath constraints for genome
#S 0 63466 
#S 0 63466 
#S 0 63466 
#S 0 63466 
#S 0 63466 
# 7 subpath constraints for genome
#S 9976 72352 
#S 8022 8199 63704 8244 8304 63748 8349 8370 8436 8437 8446 8447 8449 63867 8562 8592 63925 8651 8654 64002 8732 8744 64037 8780 8789 64108 8861 8948 64149 8990 9026 64208 9086 9089 64255 9137 9200 64296 
#S 8654 64002 8732 8744 64037 8780 8789 64108 8861 8948 64149 8990 9026 64208 9086 9089 64255 9137 9200 64296 9242 9287 64322 9314 64351 9344 9350 64377 9377 9548 64447 9619 9632 64482 9668 9742 
#S 9976 72352 
#S 9976 72352 
# 8 subpath constraints for genome
#S 81461 81543 81570 81573 81618 81708 81751 81769 81796 82327 
#S 80253 80563 80590 81045 81075 81096 81126 81267 81294 81312 81366 81384 81461 81543 81570 
#S 78276 80226 
#S 0 78275 
#S 0 78275 
# 9 subpath constraints for genome
#S 82327 88653 
#S 82327 88653 
#S 81796 82327 88653 
#S 82327 88653 
#S 82327 88653 
170
24 2273 198
2273 2300 195
2273 53491 26
2300 6386 217
6386 1 28
6386 7773 190
7773 7776 225
7776 7872 187
7776 63582 35
7872 7887 231
7887 7914 187
7887 63608 32
7914 7941 228
7941 7968 181
7941 63634 35
7968 7995 219
7995 8022 191
7995 63660 30
8022 8199 220
8199 8244 188
8199 63704 39
8244 8304 236
8304 8349 191
8304 63748 22
8349 8370 240
8370 8435 200
8370 8436 41
8435 8436 300
8436 8437 335
8437 8446 457
8446 8447 323
8446 1 125
8447 8449 231
8447 8437 116
8449 8562 197
8449 63867 34
8562 8592 221
8592 8651 190
8592 63925 31
8651 8654 263
8654 8732 188
8654 64002 38
8732 8744 235
8744 8780 174
8744 64037 33
8780 8789 195
8789 8861 187
8789 64108 32
8861 8948 244
8948 8990 208
8948 64149 41
8990 9026 240
9026 9086 213
9026 64208 39
9086 9089 223
9089 9137 187
9089 64255 31
9137 9200 231
9200 9242 191
9200 64296 35
9242 9287 235
9287 9314 185
9287 64322 38
9314 9344 210
9314 64351 32
9344 9350 241
9350 9377 215
9350 64377 42
9377 9548 223
9548 9619 181
9548 64447 29
9619 9632 233
9632 9668 186
9632 64482 29
9668 9742 230
9742 9779 172
9742 64518 31
9779 9878 233
9878 9905 162
9878 64544 32
9905 9976 201
9976 1 185
9976 72352 41
39878 1 163
49853 1 50
53465 24 19
53491 2300 24
63466 1 15
63582 7872 28
63608 7914 43
63634 7968 36
63660 8022 30
63704 8244 33
63748 8349 27
63867 8562 26
63925 8651 27
64002 8732 33
64037 8780 26
64108 8861 38
64149 8990 32
64208 9086 32
64255 9137 35
64296 9242 32
64322 9314 34
64351 9344 28
64377 9377 42
64447 9619 39
64482 9668 39
64518 9779 20
64544 9905 39
72352 1 30
78275 78276 18
78276 80226 41
80226 80253 11
80226 82353 29
80253 80563 38
80563 80590 11
80563 82379 35
80590 81045 51
81045 81075 16
81045 82408 30
81075 81096 38
81096 81126 2
81096 82437 24
81126 81267 37
81267 81294 15
81267 82463 36
81294 81312 46
81312 81366 10
81312 82516 30
81366 81384 47
81384 81461 13
81384 82592 29
81461 81543 43
81543 81570 19
81543 82618 27
81570 81573 39
81573 81618 8
81573 82662 38
81618 81708 35
81708 81751 11
81708 82704 30
81751 81769 43
81769 81796 11
81769 82730 29
81796 82327 42
82327 1 6
82327 88653 26
82353 80253 32
82379 80590 41
82408 81075 32
82437 81126 21
82463 81294 25
82516 81366 36
82592 81461 28
82618 81570 28
82662 81618 40
82704 81751 38
82730 81796 36
88653 1 31
0 78276 27
0 24 188
0 1 20
0 8435 133
0 39878 165
0 49853 37
0 53465 23
0 63466 13
0 7773 35
0 78275 9