#gt10.kmer27.(4100000.4110000).V74.E104.mincyc1.e1.0
#construct-flow-graph.py -o graphs-g10-w10000-k27-cyc/ -g 10 -w 10000 -k 27 --mincycles 1 --nreads 5 --readlength 1000 --distribution lognormal11 --pdf
#kmersize=27
#windowsize=10000
#acyclic=False
#mincycles=1
#distribution=lognormal11
#ngenomes=10
#nreads=5
#readlength=1000
#outdir=graphs-g10-w10000-k27-cyc/
#pdf=True
#erroreps=1.0
#unique source is 0, unique sink is 1
#genomes: GCA_000005845.2_ASM584v2.fna GCA_000006665.1_ASM666v1.fna GCA_000007445.1_ASM744v1.fna GCA_000008865.2_ASM886v2.fna GCA_000009565.2_ASM956v1.fna GCA_000010245.1_ASM1024v1.fna GCA_000010385.1_ASM1038v1.fna GCA_000010485.1_ASM1048v1.fna GCA_000010745.1_ASM1074v1.fna GCA_000010765.1_ASM1076v1.fna 
# ground truth paths, in the format 'weight node1 node2 node3 ... '
#T 7 0 1 
#T 26 0 19951 1 
#T 53 0 29926 1 
#T 18 0 39901 1 
#T 69 0 49876 1 
#T 26 0 59851 1 
#T 24 0 69826 1 
#T 48 0 79801 1 
#T 25 0 79992 80070 79992 80070 85592 85605 85632 86116 86143 86701 86728 86893 86926 86935 86980 87017 87048 87121 87148 87153 87180 87232 87259 87751 87778 87785 87812 88225 88264 88567 88616 88627 88678 88813 88840 89195 89222 89327 89373 89473 89500 89606 89633 89648 89675 89695 1 
#T 18 0 85592 85605 89723 85632 86116 89749 86143 86701 89775 86728 86893 89807 86926 86935 89851 86980 87017 89881 87048 87121 89907 87148 87153 89933 87180 87232 89959 87259 87751 89985 87778 87785 90011 87812 88225 90049 88264 88567 90097 88616 88627 90147 88678 88813 90173 88840 89195 90199 89222 89327 90234 89373 89473 90260 89500 89606 90286 89633 89648 90312 89675 89695 96193 1 
# subpath constraints, in the format 'node1 node2 node3 ... '
# 0 subpath constraints for genome
#S 0 1 
#S 0 1 
#S 0 1 
#S 0 1 
#S 0 1 
# 1 subpath constraints for genome
#S 0 19951 
#S 0 19951 
#S 0 19951 
#S 0 19951 
#S 0 19951 
# 2 subpath constraints for genome
#S 0 29926 
#S 0 29926 
#S 0 29926 
#S 0 29926 
#S 0 29926 
# 3 subpath constraints for genome
#S 0 39901 
#S 0 39901 
#S 0 39901 
#S 0 39901 
#S 0 39901 
# 4 subpath constraints for genome
#S 0 49876 
#S 0 49876 
#S 0 49876 
#S 0 49876 
#S 0 49876 
# 5 subpath constraints for genome
#S 0 59851 
#S 0 59851 
#S 0 59851 
#S 0 59851 
#S 0 59851 
# 6 subpath constraints for genome
#S 0 69826 
#S 0 69826 
#S 0 69826 
#S 0 69826 
#S 0 69826 
# 7 subpath constraints for genome
#S 0 79801 
#S 0 79801 
#S 0 79801 
#S 0 79801 
#S 0 79801 
# 8 subpath constraints for genome
#S 88678 88813 88840 89195 89222 89327 89373 89473 89500 89606 89633 89648 89675 89695 
#S 88678 88813 88840 89195 89222 89327 89373 89473 89500 89606 89633 89648 89675 89695 
#S 0 79992 80070 79992 80070 85592 
#S 86143 86701 86728 86893 86926 86935 86980 87017 87048 87121 87148 87153 87180 87232 87259 87751 
#S 88264 88567 88616 88627 88678 88813 88840 89195 89222 89327 89373 89473 
# 9 subpath constraints for genome
#S 89695 96193 
#S 89606 90286 89633 89648 90312 89675 89695 96193 
#S 87259 87751 89985 87778 87785 90011 87812 88225 90049 88264 88567 
#S 87259 87751 89985 87778 87785 90011 87812 88225 90049 88264 88567 
#S 89695 96193 
104
19951 1 23
29926 1 55
39901 1 17
49876 1 82
59851 1 26
69826 1 28
79801 1 50
79992 80070 64
80070 79992 23
80070 85592 20
85592 85605 47
85605 85632 25
85605 89723 16
85632 86116 34
86116 86143 26
86116 89749 20
86143 86701 33
86701 86728 21
86701 89775 25
86728 86893 51
86893 86926 26
86893 89807 14
86926 86935 34
86935 86980 13
86935 89851 12
86980 87017 46
87017 87048 29
87017 89881 17
87048 87121 35
87121 87148 38
87121 89907 17
87148 87153 37
87153 87180 28
87153 89933 15
87180 87232 50
87232 87259 28
87232 89959 11
87259 87751 44
87751 87778 21
87751 89985 18
87778 87785 34
87785 87812 28
87785 90011 23
87812 88225 40
88225 88264 26
88225 90049 19
88264 88567 48
88567 88616 25
88567 90097 17
88616 88627 37
88627 88678 29
88627 90147 21
88678 88813 37
88813 88840 37
88813 90173 16
88840 89195 46
89195 89222 26
89195 90199 20
89222 89327 48
89327 89373 21
89327 90234 10
89373 89473 47
89473 89500 26
89473 90260 14
89500 89606 40
89606 89633 21
89606 90286 18
89633 89648 59
89648 89675 34
89648 90312 12
89675 89695 33
89695 1 26
89695 96193 21
89723 85632 20
89749 86143 15
89775 86728 19
89807 86926 12
89851 86980 16
89881 87048 19
89907 87148 19
89933 87180 19
89959 87259 14
89985 87778 17
90011 87812 13
90049 88264 20
90097 88616 10
90147 88678 19
90173 88840 22
90199 89222 21
90234 89373 15
90260 89500 19
90286 89633 15
90312 89675 18
96193 1 22
0 85592 18
0 1 8
0 19951 30
0 29926 60
0 39901 17
0 49876 77
0 59851 28
0 69826 17
0 79801 50
0 79992 22