#gt10.kmer27.(2930000.2940000).V146.E203.mincyc1.e1.0
#construct-flow-graph.py -o graphs-g10-w10000-k27-cyc/ -g 10 -w 10000 -k 27 --mincycles 1 --nreads 5 --readlength 1000 --distribution lognormal11 --pdf
#kmersize=27
#windowsize=10000
#acyclic=False
#mincycles=1
#distribution=lognormal11
#ngenomes=10
#nreads=5
#readlength=1000
#outdir=graphs-g10-w10000-k27-cyc/
#pdf=True
#erroreps=1.0
#unique source is 0, unique sink is 1
#genomes: GCA_000005845.2_ASM584v2.fna GCA_000006665.1_ASM666v1.fna GCA_000007445.1_ASM744v1.fna GCA_000008865.2_ASM886v2.fna GCA_000009565.2_ASM956v1.fna GCA_000010245.1_ASM1024v1.fna GCA_000010385.1_ASM1038v1.fna GCA_000010485.1_ASM1048v1.fna GCA_000010745.1_ASM1074v1.fna GCA_000010765.1_ASM1076v1.fna 
# ground truth paths, in the format 'weight node1 node2 node3 ... '
#T 30 0 1345 1346 9976 1 
#T 16 0 12223 12223 12223 1 
#T 45 0 26111 26112 26139 26207 26251 26304 26420 26447 26501 26561 26577 26847 26877 26904 26937 26964 26991 27043 27078 27105 27113 27140 27194 27221 27231 27353 27408 27435 27477 27491 27519 27537 27638 27641 27713 27758 27776 27803 27851 27854 27914 27917 27994 28004 28066 28118 28253 28259 28289 28312 28367 28391 28421 28502 28544 28622 28649 28747 28774 28801 28828 28855 28870 28942 28996 29031 29047 29089 29092 29170 29197 29224 29227 29296 29305 29363 29380 29407 29415 29482 29530 29557 29596 29623 29797 29875 29917 1 
#T 73 0 1 
#T 57 0 49869 1 
#T 62 0 1346 9976 51213 1 
#T 89 0 53417 26111 26112 53443 26139 53510 26207 26251 53562 26304 26420 53588 26447 26501 53647 26561 26577 53804 26847 26877 53830 26904 26937 53856 26964 26991 53907 27043 27078 53933 27105 27113 53959 27140 27194 53985 27221 27231 54106 27353 27408 54132 27435 54173 27477 27491 54200 27519 27537 54300 27638 27641 54371 27713 54415 27758 27776 54441 27803 54488 27851 27854 54547 27914 27917 54623 27994 28004 54684 28066 28118 54818 28253 28259 54847 28289 28312 54901 28367 28391 54930 28421 28502 54971 28544 28622 54997 28649 28747 55023 28774 28801 55049 28828 55075 28855 28870 55146 28942 28996 55180 29031 29047 55221 29089 29092 55298 29170 55324 29197 55350 29224 29227 55418 29296 29305 55475 29363 29380 55501 29407 29415 55567 29482 29530 55593 29557 29596 55619 29623 29797 55696 29875 29917 59772 1 
#T 69 0 69747 1 
#T 18 0 79722 1 
#T 13 0 89697 1 
# subpath constraints, in the format 'node1 node2 node3 ... '
# 0 subpath constraints for genome
#S 0 1345 1346 9976 
#S 1346 9976 
#S 1346 9976 
#S 1346 9976 
#S 1346 9976 
# 1 subpath constraints for genome
#S 12223 1 
#S 12223 1 
#S 0 12223 12223 12223 1 
#S 12223 1 
#S 12223 1 
# 2 subpath constraints for genome
#S 26112 26139 26207 26251 26304 26420 26447 26501 26561 26577 26847 26877 26904 26937 26964 26991 27043 27078 27105 27113 27140 
#S 27435 27477 27491 27519 27537 27638 27641 27713 27758 27776 27803 27851 27854 27914 27917 27994 28004 28066 28118 28253 28259 28289 28312 28367 28391 28421 28502 
#S 27231 27353 27408 27435 27477 27491 27519 27537 27638 27641 27713 27758 27776 27803 27851 27854 27914 27917 27994 28004 28066 28118 28253 28259 28289 28312 28367 
#S 27519 27537 27638 27641 27713 27758 27776 27803 27851 27854 27914 27917 27994 28004 28066 28118 28253 28259 28289 28312 28367 28391 28421 28502 28544 
#S 0 26111 
# 3 subpath constraints for genome
#S 0 1 
#S 0 1 
#S 0 1 
#S 0 1 
#S 0 1 
# 4 subpath constraints for genome
#S 0 49869 
#S 0 49869 
#S 0 49869 
#S 0 49869 
#S 0 49869 
# 5 subpath constraints for genome
#S 1346 9976 51213 
#S 1346 9976 
#S 1346 9976 
#S 9976 51213 
#S 1346 9976 51213 
# 6 subpath constraints for genome
#S 29305 55475 29363 29380 55501 29407 29415 55567 29482 29530 55593 29557 29596 55619 29623 29797 55696 29875 29917 59772 
#S 26991 53907 27043 27078 53933 27105 27113 53959 27140 27194 53985 27221 27231 54106 27353 27408 54132 27435 54173 27477 27491 54200 27519 27537 54300 27638 27641 54371 27713 54415 27758 27776 54441 27803 54488 27851 27854 54547 27914 27917 54623 27994 28004 54684 
#S 27776 54441 27803 54488 27851 27854 54547 27914 27917 54623 27994 28004 54684 28066 28118 54818 28253 28259 54847 28289 28312 54901 28367 28391 54930 28421 28502 54971 28544 28622 54997 28649 28747 55023 28774 28801 
#S 29917 59772 
#S 29917 59772 
# 7 subpath constraints for genome
#S 0 69747 
#S 0 69747 
#S 0 69747 
#S 0 69747 
#S 0 69747 
# 8 subpath constraints for genome
#S 0 79722 
#S 0 79722 
#S 0 79722 
#S 0 79722 
#S 0 79722 
# 9 subpath constraints for genome
#S 0 89697 
#S 0 89697 
#S 0 89697 
#S 0 89697 
#S 0 89697 
203
1345 1346 33
1346 9976 85
9976 1 27
9976 51213 67
12223 12223 35
12223 1 18
26111 26112 127
26112 26139 45
26112 53443 68
26139 26207 53
26139 53510 89
26207 26251 133
26251 26304 37
26251 53562 80
26304 26420 155
26420 26447 44
26420 53588 90
26447 26501 127
26501 26561 37
26501 53647 86
26561 26577 118
26577 26847 41
26577 53804 100
26847 26877 148
26877 26904 46
26877 53830 90
26904 26937 155
26937 26964 45
26937 53856 99
26964 26991 132
26991 27043 41
26991 53907 87
27043 27078 147
27078 27105 49
27078 53933 90
27105 27113 140
27113 27140 47
27113 53959 95
27140 27194 128
27194 27221 41
27194 53985 103
27221 27231 116
27231 27353 46
27231 54106 91
27353 27408 131
27408 27435 39
27408 54132 86
27435 27477 44
27435 54173 87
27477 27491 136
27491 27519 35
27491 54200 89
27519 27537 154
27537 27638 44
27537 54300 87
27638 27641 136
27641 27713 45
27641 54371 96
27713 27758 47
27713 54415 84
27758 27776 139
27776 27803 42
27776 54441 88
27803 27851 38
27803 54488 93
27851 27854 160
27854 27914 38
27854 54547 109
27914 27917 138
27917 27994 42
27917 54623 97
27994 28004 134
28004 28066 45
28004 54684 91
28066 28118 116
28118 28253 39
28118 54818 81
28253 28259 129
28259 28289 50
28259 54847 99
28289 28312 155
28312 28367 56
28312 54901 87
28367 28391 120
28391 28421 47
28391 54930 84
28421 28502 135
28502 28544 42
28502 54971 93
28544 28622 133
28622 28649 38
28622 54997 83
28649 28747 130
28747 28774 45
28747 55023 85
28774 28801 155
28801 28828 40
28801 55049 83
28828 28855 42
28828 55075 88
28855 28870 125
28870 28942 50
28870 55146 94
28942 28996 119
28996 29031 47
28996 55180 80
29031 29047 112
29047 29089 43
29047 55221 73
29089 29092 136
29092 29170 48
29092 55298 83
29170 29197 39
29170 55324 90
29197 29224 51
29197 55350 96
29224 29227 151
29227 29296 35
29227 55418 82
29296 29305 133
29305 29363 37
29305 55475 99
29363 29380 150
29380 29407 40
29380 55501 72
29407 29415 162
29415 29482 50
29415 55567 106
29482 29530 132
29530 29557 43
29530 55593 87
29557 29596 133
29596 29623 44
29596 55619 76
29623 29797 139
29797 29875 45
29797 55696 99
29875 29917 129
29917 1 56
29917 59772 95
49869 1 62
51213 1 61
53417 26111 97
53443 26139 91
53510 26207 92
53562 26304 94
53588 26447 76
53647 26561 82
53804 26847 101
53830 26904 75
53856 26964 101
53907 27043 81
53933 27105 72
53959 27140 88
53985 27221 79
54106 27353 99
54132 27435 84
54173 27477 76
54200 27519 87
54300 27638 96
54371 27713 82
54415 27758 78
54441 27803 93
54488 27851 97
54547 27914 85
54623 27994 102
54684 28066 94
54818 28253 74
54847 28289 97
54901 28367 90
54930 28421 92
54971 28544 87
54997 28649 90
55023 28774 91
55049 28828 76
55075 28855 66
55146 28942 94
55180 29031 97
55221 29089 96
55298 29170 84
55324 29197 97
55350 29224 111
55418 29296 82
55475 29363 85
55501 29407 85
55567 29482 90
55593 29557 98
55619 29623 67
55696 29875 95
59772 1 69
69747 1 69
79722 1 14
89697 1 10
0 1346 57
0 1345 30
0 12223 17
0 26111 44
0 1 80
0 49869 64
0 53417 98
0 69747 61
0 79722 18
0 89697 12