#gt10.kmer27.(1330000.1340000).V79.E114.mincyc100.e1.0
#construct-flow-graph.py -o graphs-g10-w10000-k27-cyc/ -g 10 -w 10000 -k 27 --mincycles 1 --nreads 5 --readlength 1000 --distribution lognormal11 --pdf
#kmersize=27
#windowsize=10000
#acyclic=False
#mincycles=1
#distribution=lognormal11
#ngenomes=10
#nreads=5
#readlength=1000
#outdir=graphs-g10-w10000-k27-cyc/
#pdf=True
#erroreps=1.0
#unique source is 0, unique sink is 1
#genomes: GCA_000005845.2_ASM584v2.fna GCA_000006665.1_ASM666v1.fna GCA_000007445.1_ASM744v1.fna GCA_000008865.2_ASM886v2.fna GCA_000009565.2_ASM956v1.fna GCA_000010245.1_ASM1024v1.fna GCA_000010385.1_ASM1038v1.fna GCA_000010485.1_ASM1048v1.fna GCA_000010745.1_ASM1074v1.fna GCA_000010765.1_ASM1076v1.fna 
# ground truth paths, in the format 'weight node1 node2 node3 ... '
#T 33 0 2 7369 7396 8262 9976 1 
#T 22 0 1 
#T 42 0 29926 1 
#T 11 0 39901 1 
#T 69 0 49876 1 
#T 35 0 49877 50029 50056 50071 50098 50188 50254 50332 50367 50445 50488 50494 50521 50554 50581 50593 50659 50840 50867 51023 51050 51087 51117 51132 51207 51273 51300 51352 51408 2 7369 51616 7396 8262 1 
#T 133 0 58542 58614 58636 58663 58673 58686 58700 58713 58723 58744 58776 58785 58813 58873 58910 58937 58985 59013 58542 58614 58636 59081 58663 58673 58686 58713 58723 58776 58785 59195 58813 58873 59244 58910 58937 58985 59271 59013 58542 58614 59081 58663 58673 58700 58713 58723 58744 59195 58813 58873 59244 58910 58937 1 
#T 21 0 69403 49877 50029 69429 50056 50071 69455 50098 50188 69520 50254 50332 69554 50367 50445 69596 50488 50494 69622 50521 50554 69648 50581 50593 69713 50659 50840 69739 50867 51023 69765 51050 51087 69794 51117 51132 69868 51207 51273 69894 51300 51352 69949 51408 1 
#T 65 0 79924 1 
#T 36 0 89899 1 
# subpath constraints, in the format 'node1 node2 node3 ... '
# 0 subpath constraints for genome
#S 2 7369 
#S 8262 9976 
#S 2 7369 
#S 8262 9976 
#S 2 7369 
# 1 subpath constraints for genome
#S 0 1 
#S 0 1 
#S 0 1 
#S 0 1 
#S 0 1 
# 2 subpath constraints for genome
#S 0 29926 
#S 0 29926 
#S 0 29926 
#S 0 29926 
#S 0 29926 
# 3 subpath constraints for genome
#S 0 39901 
#S 0 39901 
#S 0 39901 
#S 0 39901 
#S 0 39901 
# 4 subpath constraints for genome
#S 0 49876 
#S 0 49876 
#S 0 49876 
#S 0 49876 
#S 0 49876 
# 5 subpath constraints for genome
#S 2 7369 
#S 7396 8262 
#S 7396 8262 
#S 50254 50332 50367 50445 50488 50494 50521 50554 50581 50593 50659 50840 50867 51023 51050 51087 51117 51132 51207 51273 51300 
#S 2 7369 
# 6 subpath constraints for genome
#S 0 58542 
#S 0 58542 
#S 58937 1 
#S 0 58542 58614 58636 58663 58673 58686 58700 58713 58723 58744 58776 58785 58813 58873 58910 58937 58985 59013 58542 58614 58636 59081 58663 58673 58686 58713 58723 58776 58785 59195 58813 58873 59244 
#S 0 58542 
# 7 subpath constraints for genome
#S 50098 50188 69520 50254 50332 69554 50367 50445 69596 50488 50494 69622 50521 50554 69648 50581 50593 69713 50659 50840 69739 50867 51023 69765 51050 51087 69794 51117 51132 69868 
#S 0 69403 
#S 0 69403 
#S 0 69403 
#S 0 69403 
# 8 subpath constraints for genome
#S 0 79924 
#S 0 79924 
#S 0 79924 
#S 0 79924 
#S 0 79924 
# 9 subpath constraints for genome
#S 0 89899 
#S 0 89899 
#S 0 89899 
#S 0 89899 
#S 0 89899 
114
2 7369 55
7369 7396 30
7369 51616 29
7396 8262 79
8262 1 41
8262 9976 29
9976 1 30
29926 1 47
39901 1 16
49876 1 63
49877 50029 55
50029 50056 31
50029 69429 22
50056 50071 57
50071 50098 39
50071 69455 17
50098 50188 59
50188 50254 34
50188 69520 17
50254 50332 59
50332 50367 31
50332 69554 18
50367 50445 55
50445 50488 35
50445 69596 19
50488 50494 64
50494 50521 32
50494 69622 25
50521 50554 46
50554 50581 39
50554 69648 22
50581 50593 52
50593 50659 38
50593 69713 25
50659 50840 59
50840 50867 30
50840 69739 18
50867 51023 59
51023 51050 43
51023 69765 20
51050 51087 60
51087 51117 22
51087 69794 23
51117 51132 58
51132 51207 28
51132 69868 17
51207 51273 62
51273 51300 44
51273 69894 16
51300 51352 62
51352 51408 37
51352 69949 24
51408 1 15
51408 2 32
51616 7396 40
58542 58614 400
58614 58636 258
58614 59081 153
58636 58663 125
58636 59081 130
58663 58673 404
58673 58686 271
58673 58700 127
58686 58700 146
58686 58713 160
58700 58713 237
58713 58723 372
58723 58744 272
58723 58776 126
58744 58776 129
58744 59195 141
58776 58785 271
58785 58813 138
58785 59195 142
58813 58873 390
58873 58910 137
58873 59244 260
58910 58937 404
58937 58985 295
58937 1 152
58985 59013 155
58985 59271 119
59013 58542 264
59081 58663 276
59195 58813 291
59244 58910 248
59271 59013 125
69403 49877 23
69429 50056 11
69455 50098 15
69520 50254 25
69554 50367 16
69596 50488 20
69622 50521 24
69648 50581 16
69713 50659 28
69739 50867 12
69765 51050 17
69794 51117 14
69868 51207 17
69894 51300 27
69949 51408 14
79924 1 60
89899 1 37
0 2 43
0 49877 23
0 1 19
0 29926 27
0 39901 15
0 49876 81
0 58542 126
0 69403 24
0 79924 69
0 89899 37