#gt10.kmer27.(1430000.1440000).V88.E142.mincyc100.e1.0
#construct-flow-graph.py -o graphs-g10-w10000-k27-cyc/ -g 10 -w 10000 -k 27 --mincycles 1 --nreads 5 --readlength 1000 --distribution lognormal11 --pdf
#kmersize=27
#windowsize=10000
#acyclic=False
#mincycles=1
#distribution=lognormal11
#ngenomes=10
#nreads=5
#readlength=1000
#outdir=graphs-g10-w10000-k27-cyc/
#pdf=True
#erroreps=1.0
#unique source is 0, unique sink is 1
#genomes: GCA_000005845.2_ASM584v2.fna GCA_000006665.1_ASM666v1.fna GCA_000007445.1_ASM744v1.fna GCA_000008865.2_ASM886v2.fna GCA_000009565.2_ASM956v1.fna GCA_000010245.1_ASM1024v1.fna GCA_000010385.1_ASM1038v1.fna GCA_000010485.1_ASM1048v1.fna GCA_000010745.1_ASM1074v1.fna GCA_000010765.1_ASM1076v1.fna 
# ground truth paths, in the format 'weight node1 node2 node3 ... '
#T 47 0 2 8262 9976 1 
#T 17 0 1 
#T 19 0 29926 1 
#T 71 0 39901 1 
#T 14 0 49876 1 
#T 74 0 51590 2 8262 1 
#T 37 0 61565 1 
#T 22 0 65085 65086 65092 65113 65119 65152 65158 65164 65176 65185 65193 65197 65206 65224 65227 65233 65236 65239 65263 65267 65278 65290 65302 65320 65332 65353 65359 65380 65386 65406 65434 65152 65158 65164 65176 65448 65454 65466 65472 65475 65478 65487 65505 65509 65514 65267 65278 65290 65302 65320 65332 65550 65553 65562 65565 65574 65580 65086 65092 65113 65119 65152 65158 65164 65176 65185 65193 65197 65206 65224 65227 65233 65236 65585 65586 65591 65613 65615 65642 65302 65320 65658 65665 65677 65353 65359 65085 65086 65386 65406 65113 65119 65152 65158 65721 65454 65466 65472 65475 65478 65487 65505 65509 65514 65267 65278 65290 65302 65320 65332 65550 65553 65562 65565 65574 65580 65086 65113 65119 65152 65158 65721 65185 65193 65197 65766 65475 65478 65487 65236 65585 65586 65514 65613 65615 65819 65290 65302 65320 65658 65860 65861 65580 65086 65386 65406 65113 65119 65152 65158 65164 65176 65448 65454 65466 65206 65233 65236 65585 65586 65591 65927 65819 65642 65302 65964 65967 65997 65550 65553 65562 65565 65574 65580 65086 65092 65113 65119 65434 65152 65448 65454 65466 65472 65475 65478 65224 65227 65233 65236 65585 65586 65591 65927 65263 65267 65278 66079 65964 65967 66111 66114 65997 65550 65553 65562 66140 65380 65092 65113 65119 65152 65158 65164 65176 65185 65193 65197 65206 65224 65227 65233 65236 65239 66206 66216 66114 65997 65550 65553 66248 66140 65380 65386 65406 65113 65119 65152 65158 65164 65176 65448 65454 65466 65472 65505 65509 66298 65591 65927 65263 66079 65964 65967 66111 66327 65665 65677 65353 65860 65861 66248 66140 65380 65386 65406 65113 65119 65152 65158 65164 65176 65185 65193 65197 65766 65475 65478 65224 65227 66206 66216 66459 65565 65574 65580 65086 65386 65406 65434 65152 65158 65164 65193 65197 65766 65585 66327 65665 65677 66459 65565 65574 66774 66298 65591 65927 65263 66079 65964 65967 66111 66327 65665 65677 65353 65860 65861 66248 66140 65380 65386 65406 65113 65119 65152 65158 65164 65176 65185 65193 65197 65766 65475 65478 65224 65227 66206 66216 66459 65565 65574 65580 65086 65386 65406 65434 65152 65158 65164 65193 65197 65766 65585 66327 65665 65677 66459 65565 65574 66774 1 
#T 38 0 78962 1 
#T 43 0 88937 1 
# subpath constraints, in the format 'node1 node2 node3 ... '
# 0 subpath constraints for genome
#S 2 8262 
#S 2 8262 
#S 8262 9976 
#S 2 8262 
#S 8262 9976 
# 1 subpath constraints for genome
#S 0 1 
#S 0 1 
#S 0 1 
#S 0 1 
#S 0 1 
# 2 subpath constraints for genome
#S 0 29926 
#S 0 29926 
#S 0 29926 
#S 0 29926 
#S 0 29926 
# 3 subpath constraints for genome
#S 0 39901 
#S 0 39901 
#S 0 39901 
#S 0 39901 
#S 0 39901 
# 4 subpath constraints for genome
#S 0 49876 
#S 0 49876 
#S 0 49876 
#S 0 49876 
#S 0 49876 
# 5 subpath constraints for genome
#S 2 8262 
#S 2 8262 
#S 2 8262 
#S 2 8262 
#S 2 8262 
# 6 subpath constraints for genome
#S 0 61565 
#S 0 61565 
#S 0 61565 
#S 0 61565 
#S 0 61565 
# 7 subpath constraints for genome
#S 
#S 66774 1 
#S 0 65085 65086 65092 65113 65119 65152 65158 
#S 65158 65164 65176 65185 65193 65197 65766 65475 65478 65224 65227 66206 66216 66459 65565 65574 65580 65086 65386 65406 65434 65152 65158 65164 65193 65197 65766 65585 66327 65665 65677 66459 65565 65574 66774 1 
#S 0 65085 
# 8 subpath constraints for genome
#S 0 78962 
#S 0 78962 
#S 0 78962 
#S 0 78962 
#S 0 78962 
# 9 subpath constraints for genome
#S 0 88937 
#S 0 88937 
#S 0 88937 
#S 0 88937 
#S 0 88937 
142
2 8262 98
8262 1 73
8262 9976 44
9976 1 51
29926 1 19
39901 1 73
49876 1 11
51590 2 76
61565 1 38
65085 65086 44
65086 65092 53
65086 65386 84
65086 65113 22
65092 65113 74
65113 65119 216
65119 65152 205
65119 65434 16
65152 65158 287
65152 65448 24
65158 65164 195
65158 65721 46
65164 65176 179
65164 65193 28
65176 65185 93
65176 65448 80
65185 65193 135
65193 65197 191
65197 65206 66
65197 65766 105
65206 65224 69
65206 65233 19
65224 65227 118
65227 65233 97
65227 66206 45
65233 65236 118
65236 65239 39
65236 65585 77
65239 65263 31
65239 66206 22
65263 65267 45
65263 66079 32
65267 65278 84
65278 65290 66
65278 66079 24
65290 65302 79
65302 65320 104
65302 65964 17
65320 65332 58
65320 65658 59
65332 65353 20
65332 65550 51
65353 65359 32
65353 65860 50
65359 65380 26
65359 65085 19
65380 65386 78
65380 65092 28
65386 65406 170
65406 65113 108
65406 65434 61
65434 65152 79
65448 65454 101
65454 65466 117
65466 65472 83
65466 65206 19
65472 65475 59
65472 65505 22
65475 65478 132
65478 65487 68
65478 65224 79
65487 65505 51
65487 65236 22
65505 65509 71
65509 65514 43
65509 66298 16
65514 65267 60
65514 65613 18
65550 65553 112
65553 65562 100
65553 66248 14
65562 65565 59
65562 66140 20
65565 65574 148
65574 65580 123
65574 66774 36
65580 65086 128
65585 65586 81
65585 66327 47
65586 65591 69
65586 65514 18
65591 65613 14
65591 65927 95
65613 65615 54
65615 65642 17
65615 65819 24
65642 65302 38
65658 65665 19
65658 65860 28
65665 65677 113
65677 65353 66
65677 66459 43
65721 65454 23
65721 65185 24
65766 65475 69
65766 65585 51
65819 65290 34
65819 65642 33
65860 65861 81
65861 65580 19
65861 66248 62
65927 65819 22
65927 65263 62
65964 65967 75
65967 65997 15
65967 66111 70
65997 65550 70
66079 65964 61
66111 66114 23
66111 66327 37
66114 65997 50
66140 65380 77
66206 66216 61
66216 66114 26
66216 66459 36
66248 66140 58
66298 65591 50
66327 65665 94
66459 65565 92
66774 66298 20
66774 1 25
78962 1 28
88937 1 47
0 2 41
0 1 23
0 29926 14
0 39901 62
0 49876 9
0 51590 64
0 61565 33
0 65085 25
0 78962 40
0 88937 52