#gt10.kmer27.(1400000.1410000).V89.E128.mincyc100.e1.0
#construct-flow-graph.py -o graphs-g10-w10000-k27-cyc/ -g 10 -w 10000 -k 27 --mincycles 1 --nreads 5 --readlength 1000 --distribution lognormal11 --pdf
#kmersize=27
#windowsize=10000
#acyclic=False
#mincycles=1
#distribution=lognormal11
#ngenomes=10
#nreads=5
#readlength=1000
#outdir=graphs-g10-w10000-k27-cyc/
#pdf=True
#erroreps=1.0
#unique source is 0, unique sink is 1
#genomes: GCA_000005845.2_ASM584v2.fna GCA_000006665.1_ASM666v1.fna GCA_000007445.1_ASM744v1.fna GCA_000008865.2_ASM886v2.fna GCA_000009565.2_ASM956v1.fna GCA_000010245.1_ASM1024v1.fna GCA_000010385.1_ASM1038v1.fna GCA_000010485.1_ASM1048v1.fna GCA_000010745.1_ASM1074v1.fna GCA_000010765.1_ASM1076v1.fna 
# ground truth paths, in the format 'weight node1 node2 node3 ... '
#T 89 0 2 14 65 260 291 324 351 368 5672 5691 5781 5800 8262 9976 1 
#T 13 0 1 
#T 1 0 29926 1 
#T 79 0 30036 30057 30036 30057 1 
#T 42 0 49854 1 
#T 49 0 49868 49956 49983 50006 50033 50253 50280 50313 50340 50670 50697 50736 50805 50883 50910 51217 51244 51284 51311 51428 51482 51488 51515 51530 51557 2 14 65 260 291 324 351 368 5672 5691 5781 5800 8262 1 
#T 42 0 61543 1 
#T 26 0 67772 49868 49956 67798 49983 50006 67824 50033 50253 67850 50280 50313 67876 50340 50670 67902 50697 50736 67970 50805 50883 67996 50910 51217 68022 51244 51284 68048 51311 51428 68101 51482 51488 68127 51515 51530 68153 51557 2 14 68203 65 260 68233 291 324 68259 351 368 68519 5672 5691 68608 5781 5800 1 
#T 7 0 72518 72590 72612 72639 72649 72662 72676 72689 72699 72720 72752 72755 72761 72789 72849 72886 72900 72913 72961 72989 72518 72590 72612 73057 72639 72649 72662 72689 72699 72752 72755 72761 73184 72789 72849 73208 72900 72913 72961 73261 72989 72518 72590 73057 72639 72649 72676 72689 72699 72720 72755 72761 73184 72789 72849 73208 72886 72900 72913 1 
#T 29 0 89222 1 
# subpath constraints, in the format 'node1 node2 node3 ... '
# 0 subpath constraints for genome
#S 5800 8262 9976 
#S 368 5672 
#S 8262 9976 
#S 368 5672 
#S 368 5672 5691 5781 5800 8262 
# 1 subpath constraints for genome
#S 0 1 
#S 0 1 
#S 0 1 
#S 0 1 
#S 0 1 
# 2 subpath constraints for genome
#S 0 29926 
#S 0 29926 
#S 0 29926 
#S 0 29926 
#S 0 29926 
# 3 subpath constraints for genome
#S 30057 1 
#S 30057 1 
#S 30057 1 
#S 30057 1 
#S 30057 1 
# 4 subpath constraints for genome
#S 0 49854 
#S 0 49854 
#S 0 49854 
#S 0 49854 
#S 0 49854 
# 5 subpath constraints for genome
#S 368 5672 
#S 368 5672 
#S 368 5672 5691 5781 5800 8262 
#S 368 5672 
#S 368 5672 
# 6 subpath constraints for genome
#S 0 61543 
#S 0 61543 
#S 0 61543 
#S 0 61543 
#S 0 61543 
# 7 subpath constraints for genome
#S 0 67772 
#S 0 67772 
#S 0 67772 49868 49956 
#S 0 67772 
#S 0 67772 
# 8 subpath constraints for genome
#S 72913 1 
#S 72662 72676 72689 72699 72720 72752 72755 72761 72789 72849 72886 72900 72913 72961 72989 72518 72590 72612 73057 72639 72649 72662 72689 72699 72752 72755 72761 73184 72789 72849 73208 72900 72913 72961 73261 72989 72518 72590 73057 
#S 72913 1 
#S 72761 73184 72789 72849 73208 72900 72913 72961 73261 72989 72518 72590 73057 72639 72649 72676 72689 72699 72720 72755 72761 73184 72789 72849 73208 72886 72900 72913 1 
#S 72612 72639 72649 72662 72676 72689 72699 72720 72752 72755 72761 72789 72849 72886 72900 72913 72961 72989 72518 72590 72612 73057 72639 72649 72662 72689 72699 72752 72755 72761 73184 72789 72849 73208 72900 72913 72961 73261 72989 72518 72590 
# 9 subpath constraints for genome
#S 0 89222 
#S 0 89222 
#S 0 89222 
#S 
#S 0 89222 
128
2 14 156
14 65 170
14 68203 25
65 260 167
260 291 135
260 68233 19
291 324 156
324 351 140
324 68259 40
351 368 178
368 5672 144
368 68519 29
5672 5691 156
5691 5781 148
5691 68608 16
5781 5800 150
5800 8262 137
5800 1 15
8262 1 44
8262 9976 91
9976 1 99
29926 1 2
30036 30057 162
30057 30036 71
30057 1 58
49854 1 47
49868 49956 81
49956 49983 54
49956 67798 21
49983 50006 87
50006 50033 43
50006 67824 22
50033 50253 73
50253 50280 26
50253 67850 24
50280 50313 72
50313 50340 50
50313 67876 18
50340 50670 81
50670 50697 49
50670 67902 18
50697 50736 77
50736 50805 40
50736 67970 33
50805 50883 86
50883 50910 49
50883 67996 28
50910 51217 75
51217 51244 44
51217 68022 27
51244 51284 71
51284 51311 53
51284 68048 35
51311 51428 79
51428 51482 47
51428 68101 24
51482 51488 70
51488 51515 58
51488 68127 22
51515 51530 74
51530 51557 41
51530 68153 15
51557 2 80
61543 1 36
67772 49868 29
67798 49983 20
67824 50033 17
67850 50280 35
67876 50340 24
67902 50697 26
67970 50805 31
67996 50910 32
68022 51244 19
68048 51311 32
68101 51482 27
68127 51515 22
68153 51557 21
68203 65 29
68233 291 39
68259 351 26
68519 5672 34
68608 5781 27
72518 72590 19
72590 72612 15
72590 73057 6
72612 72639 9
72612 73057 10
72639 72649 14
72649 72662 13
72649 72676 7
72662 72676 7
72662 72689 8
72676 72689 14
72689 72699 25
72699 72720 8
72699 72752 5
72720 72752 9
72720 72755 5
72752 72755 22
72755 72761 15
72761 72789 5
72761 73184 19
72789 72849 14
72849 72886 5
72849 73208 7
72886 72900 17
72900 72913 21
72913 72961 11
72913 1 7
72961 72989 7
72961 73261 3
72989 72518 13
73057 72639 14
73184 72789 9
73208 72900 11
73208 72886 8
73261 72989 8
89222 1 26
0 2 84
0 1 14
0 29926 1
0 30036 82
0 49854 36
0 49868 62
0 61543 42
0 67772 26
0 72518 5
0 89222 34