#gt10.kmer27.(1290000.1300000).V35.E56.mincyc15.e1.0
#construct-flow-graph.py -o graphs-g10-w10000-k27-cyc/ -g 10 -w 10000 -k 27 --mincycles 1 --nreads 5 --readlength 1000 --distribution lognormal11 --pdf
#kmersize=27
#windowsize=10000
#acyclic=False
#mincycles=1
#distribution=lognormal11
#ngenomes=10
#nreads=5
#readlength=1000
#outdir=graphs-g10-w10000-k27-cyc/
#pdf=True
#erroreps=1.0
#unique source is 0, unique sink is 1
#genomes: GCA_000005845.2_ASM584v2.fna GCA_000006665.1_ASM666v1.fna GCA_000007445.1_ASM744v1.fna GCA_000008865.2_ASM886v2.fna GCA_000009565.2_ASM956v1.fna GCA_000010245.1_ASM1024v1.fna GCA_000010385.1_ASM1038v1.fna GCA_000010485.1_ASM1048v1.fna GCA_000010745.1_ASM1074v1.fna GCA_000010765.1_ASM1076v1.fna 
# ground truth paths, in the format 'weight node1 node2 node3 ... '
#T 148 0 2 8399 9976 1 
#T 9 0 13924 13948 13975 13979 14008 14025 14052 13924 13948 13975 13979 14008 14025 14052 13924 13948 13975 13979 14008 14025 14052 13924 13948 13975 13979 14008 14025 14052 13924 13948 14090 13975 13979 14118 14008 14025 14144 14052 13924 1 
#T 32 0 1 
#T 16 0 39416 1 
#T 11 0 49391 1 
#T 12 0 49399 49438 49489 49576 2 8399 1 
#T 4 0 60943 1 
#T 50 0 62688 62696 62688 62696 69719 69781 69719 69781 49399 49438 70718 49489 49576 1 
#T 179 0 77547 77627 77654 77693 77547 77627 77654 77693 77547 77627 77734 77654 77772 77693 1 
#T 10 0 82437 82458 82437 82458 1 
# subpath constraints, in the format 'node1 node2 node3 ... '
# 0 subpath constraints for genome
#S 2 8399 
#S 2 8399 
#S 2 8399 
#S 2 8399 
#S 2 8399 
# 1 subpath constraints for genome
#S 0 13924 
#S 13924 1 
#S 0 13924 
#S 14052 13924 13948 14090 13975 13979 14118 14008 14025 14144 14052 13924 1 
#S 0 13924 
# 2 subpath constraints for genome
#S 0 1 
#S 0 1 
#S 0 1 
#S 0 1 
#S 0 1 
# 3 subpath constraints for genome
#S 0 39416 
#S 0 39416 
#S 0 39416 
#S 0 39416 
#S 0 39416 
# 4 subpath constraints for genome
#S 0 49391 
#S 0 49391 
#S 0 49391 
#S 0 49391 
#S 0 49391 
# 5 subpath constraints for genome
#S 49576 2 8399 
#S 2 8399 
#S 49576 2 8399 
#S 2 8399 
#S 2 8399 
# 6 subpath constraints for genome
#S 0 60943 
#S 0 60943 
#S 0 60943 
#S 0 60943 
#S 0 60943 
# 7 subpath constraints for genome
#S 0 62688 62696 62688 62696 69719 
#S 62696 69719 
#S 62696 69719 
#S 62696 69719 
#S 62696 69719 
# 8 subpath constraints for genome
#S 0 77547 
#S 0 77547 77627 77654 77693 77547 77627 77654 77693 77547 77627 77734 
#S 0 77547 
#S 0 77547 
#S 0 77547 77627 
# 9 subpath constraints for genome
#S 82458 1 
#S 82458 1 
#S 0 82437 82458 82437 82458 1 
#S 82458 1 
#S 0 82437 82458 82437 82458 1 
56
2 8399 161
8399 1 10
8399 9976 151
9976 1 143
13924 13948 44
13924 1 9
13948 13975 40
13948 14090 5
13975 13979 38
13979 14008 43
13979 14118 6
14008 14025 44
14025 14052 37
14025 14144 8
14052 13924 38
14090 13975 13
14118 14008 4
14144 14052 10
39416 1 21
49391 1 13
49399 49438 69
49438 49489 11
49438 70718 45
49489 49576 59
49576 1 52
49576 2 10
60943 1 5
62688 62696 81
62696 62688 52
62696 69719 41
69719 69781 82
69781 69719 57
69781 49399 58
70718 49489 53
77547 77627 560
77627 77654 394
77627 77734 184
77654 77693 383
77654 77772 196
77693 77547 352
77693 1 183
77734 77654 188
77772 77693 203
82437 82458 26
82458 82437 15
82458 1 11
0 2 138
0 13924 8
0 1 33
0 39416 17
0 49391 11
0 49399 21
0 60943 9
0 62688 65
0 77547 167
0 82437 14