#gt10.kmer27.(490000.500000).V138.E191.mincyc1.e1.0
#construct-flow-graph.py -o graphs-g10-w10000-k27-cyc/ -g 10 -w 10000 -k 27 --mincycles 1 --nreads 5 --readlength 1000 --distribution lognormal11 --pdf
#kmersize=27
#windowsize=10000
#acyclic=False
#mincycles=1
#distribution=lognormal11
#ngenomes=10
#nreads=5
#readlength=1000
#outdir=graphs-g10-w10000-k27-cyc/
#pdf=True
#erroreps=1.0
#unique source is 0, unique sink is 1
#genomes: GCA_000005845.2_ASM584v2.fna GCA_000006665.1_ASM666v1.fna GCA_000007445.1_ASM744v1.fna GCA_000008865.2_ASM886v2.fna GCA_000009565.2_ASM956v1.fna GCA_000010245.1_ASM1024v1.fna GCA_000010385.1_ASM1038v1.fna GCA_000010485.1_ASM1048v1.fna GCA_000010745.1_ASM1074v1.fna GCA_000010765.1_ASM1076v1.fna 
# ground truth paths, in the format 'weight node1 node2 node3 ... '
#T 8 0 14 48 98 130 160 163 211 248 307 392 419 485 512 635 743 770 778 797 1330 1357 1387 9976 1 
#T 8 0 9977 9978 15554 15581 19951 1 
#T 40 0 1 
#T 37 0 9978 15554 29952 15581 19951 29953 1 
#T 123 0 36006 36014 36006 36014 1 
#T 136 0 778 797 1330 1357 1387 9976 40695 1 
#T 60 0 42585 42586 42667 42703 42706 42733 42808 42835 43613 43640 44582 44609 44876 44903 46339 46476 46595 46622 46699 46726 46819 46846 46994 47021 47225 47252 47489 47516 47600 47627 47684 47732 47738 47765 47915 47942 48120 48147 48297 48324 49416 49443 49831 49864 49891 49933 49945 49972 49981 50008 50080 50119 50125 50152 50173 50200 50254 50281 50293 50320 50581 50608 50656 1 
#T 181 0 60645 1 
#T 82 0 69246 14 48 69295 98 130 69324 160 163 69371 211 248 69429 307 392 69455 419 485 69481 512 635 69588 743 770 797 1330 69640 1357 1387 1 
#T 14 0 42586 42667 69675 42703 42706 69701 42733 42808 69727 42835 43613 69753 43640 44582 69779 44609 44876 69805 44903 46339 69941 46476 46595 69967 46622 46699 69993 46726 46819 70019 46846 46994 70045 47021 47225 70071 47252 47489 70097 47516 47600 70123 47627 47684 70170 47732 47738 70196 47765 47915 70222 47942 48120 70248 48147 48297 70274 48324 49416 70300 49443 49831 70332 49864 49891 70373 49933 49945 70399 49972 49981 70425 50008 50080 70463 50119 50125 70489 50152 50173 70515 50200 50254 70541 50281 50293 70567 50320 50581 70593 50608 50656 72497 1 
# subpath constraints, in the format 'node1 node2 node3 ... '
# 0 subpath constraints for genome
#S 1387 9976 
#S 1387 9976 
#S 1387 9976 
#S 1387 9976 
#S 1387 9976 
# 1 subpath constraints for genome
#S 15581 19951 
#S 9978 15554 15581 19951 
#S 15581 19951 
#S 9978 15554 
#S 15581 19951 
# 2 subpath constraints for genome
#S 0 1 
#S 0 1 
#S 0 1 
#S 0 1 
#S 0 1 
# 3 subpath constraints for genome
#S 9978 15554 
#S 9978 15554 29952 15581 19951 
#S 9978 15554 29952 15581 19951 
#S 9978 15554 
#S 9978 15554 
# 4 subpath constraints for genome
#S 0 36006 
#S 0 36006 
#S 36014 1 
#S 0 36006 
#S 0 36006 
# 5 subpath constraints for genome
#S 1387 9976 
#S 1387 9976 
#S 1387 9976 
#S 778 797 1330 1357 1387 9976 
#S 1387 9976 
# 6 subpath constraints for genome
#S 49443 49831 49864 49891 49933 49945 49972 49981 50008 50080 50119 50125 50152 50173 50200 50254 50281 50293 50320 50581 
#S 42835 43613 43640 44582 
#S 0 42585 
#S 0 42585 42586 42667 42703 42706 42733 42808 42835 43613 
#S 44609 44876 44903 46339 
# 7 subpath constraints for genome
#S 0 60645 
#S 0 60645 
#S 0 60645 
#S 0 60645 
#S 0 60645 
# 8 subpath constraints for genome
#S 0 69246 
#S 0 69246 
#S 0 69246 
#S 485 69481 512 635 69588 743 770 797 1330 69640 1357 1387 
#S 0 69246 
# 9 subpath constraints for genome
#S 50656 72497 
#S 46339 69941 46476 46595 69967 46622 46699 69993 46726 46819 70019 46846 46994 70045 47021 47225 70071 47252 47489 
#S 50608 50656 72497 
#S 48324 49416 70300 49443 49831 70332 49864 49891 70373 
#S 46846 46994 70045 47021 47225 70071 47252 47489 70097 47516 47600 70123 47627 47684 70170 47732 47738 70196 47765 47915 
191
14 48 82
48 98 6
48 69295 81
98 130 77
130 160 9
130 69324 103
160 163 80
163 211 8
163 69371 93
211 248 93
248 307 6
248 69429 86
307 392 84
392 419 6
392 69455 96
419 485 77
485 512 8
485 69481 94
512 635 93
635 743 11
635 69588 82
743 770 84
770 778 6
770 797 69
778 797 148
797 1330 224
1330 1357 136
1330 69640 103
1357 1387 243
1387 1 75
1387 9976 164
9976 1 5
9976 40695 145
9977 9978 6
9978 15554 40
15554 15581 6
15554 29952 35
15581 19951 43
19951 29953 45
19951 1 8
29952 15581 49
29953 1 24
36006 36014 241
36014 36006 125
36014 1 116
40695 1 129
42585 42586 61
42586 42667 62
42667 42703 53
42667 69675 15
42703 42706 75
42706 42733 61
42706 69701 17
42733 42808 71
42808 42835 53
42808 69727 13
42835 43613 73
43613 43640 67
43613 69753 11
43640 44582 83
44582 44609 58
44582 69779 11
44609 44876 69
44876 44903 48
44876 69805 23
44903 46339 65
46339 46476 77
46339 69941 15
46476 46595 77
46595 46622 47
46595 69967 14
46622 46699 78
46699 46726 65
46699 69993 8
46726 46819 97
46819 46846 77
46819 70019 11
46846 46994 64
46994 47021 57
46994 70045 13
47021 47225 81
47225 47252 66
47225 70071 13
47252 47489 76
47489 47516 57
47489 70097 13
47516 47600 71
47600 47627 50
47600 70123 17
47627 47684 70
47684 47732 57
47684 70170 19
47732 47738 64
47738 47765 74
47738 70196 15
47765 47915 52
47915 47942 51
47915 70222 10
47942 48120 68
48120 48147 54
48120 70248 15
48147 48297 85
48297 48324 60
48297 70274 8
48324 49416 72
49416 49443 63
49416 70300 20
49443 49831 84
49831 49864 60
49831 70332 12
49864 49891 87
49891 49933 64
49891 70373 16
49933 49945 68
49945 49972 51
49945 70399 12
49972 49981 73
49981 50008 56
49981 70425 13
50008 50080 70
50080 50119 50
50080 70463 14
50119 50125 86
50125 50152 55
50125 70489 16
50152 50173 85
50173 50200 61
50173 70515 10
50200 50254 67
50254 50281 59
50254 70541 16
50281 50293 71
50293 50320 42
50293 70567 13
50320 50581 55
50581 50608 33
50581 70593 14
50608 50656 84
50656 1 61
50656 72497 14
60645 1 185
69246 14 84
69295 98 96
69324 160 91
69371 211 70
69429 307 86
69455 419 81
69481 512 87
69588 743 90
69640 1357 78
69675 42703 17
69701 42733 9
69727 42835 18
69753 43640 7
69779 44609 9
69805 44903 12
69941 46476 13
69967 46622 14
69993 46726 11
70019 46846 23
70045 47021 15
70071 47252 10
70097 47516 10
70123 47627 8
70170 47732 16
70196 47765 15
70222 47942 12
70248 48147 15
70274 48324 11
70300 49443 16
70332 49864 22
70373 49933 18
70399 49972 10
70425 50008 10
70463 50119 17
70489 50152 13
70515 50200 14
70541 50281 15
70567 50320 15
70593 50608 17
72497 1 9
0 9977 4
0 9978 30
0 778 155
0 42586 10
0 14 8
0 1 30
0 36006 132
0 42585 47
0 60645 168
0 69246 86