#gt10.kmer27.(2710000.2720000).V111.E162.mincyc100.e1.0
#construct-flow-graph.py -o graphs-g10-w10000-k27-cyc/ -g 10 -w 10000 -k 27 --mincycles 1 --nreads 5 --readlength 1000 --distribution lognormal11 --pdf
#kmersize=27
#windowsize=10000
#acyclic=False
#mincycles=1
#distribution=lognormal11
#ngenomes=10
#nreads=5
#readlength=1000
#outdir=graphs-g10-w10000-k27-cyc/
#pdf=True
#erroreps=1.0
#unique source is 0, unique sink is 1
#genomes: GCA_000005845.2_ASM584v2.fna GCA_000006665.1_ASM666v1.fna GCA_000007445.1_ASM744v1.fna GCA_000008865.2_ASM886v2.fna GCA_000009565.2_ASM956v1.fna GCA_000010245.1_ASM1024v1.fna GCA_000010385.1_ASM1038v1.fna GCA_000010485.1_ASM1048v1.fna GCA_000010745.1_ASM1074v1.fna GCA_000010765.1_ASM1076v1.fna 
# ground truth paths, in the format 'weight node1 node2 node3 ... '
#T 29 0 1345 1346 9976 1 
#T 19 0 9977 10099 10191 10234 10370 10373 9977 10099 12025 10191 10234 12159 10370 10373 16008 16054 16008 16054 1 
#T 43 0 22265 22288 22290 22323 22350 22354 22265 22288 22323 22415 22350 22354 22434 22441 22290 27761 27831 27912 27916 27943 27970 27997 28266 28293 28509 28536 28557 28584 28591 28626 28662 28710 28722 28770 28785 28821 28833 28860 29007 29019 29070 29097 29124 29130 29157 29205 29232 29265 29361 29388 29494 29521 29677 1 
#T 30 0 36442 36484 36651 36654 36712 36721 36790 36796 36823 36871 36442 36484 37217 36651 36654 37274 36712 36721 37342 36790 36796 37368 36823 36871 1 
#T 23 0 47200 47201 47204 47206 47201 47204 47324 47201 47204 47206 47200 47201 47204 47324 1 
#T 19 0 1346 9976 50841 1 
#T 16 0 27761 27831 50921 27912 27916 50947 27943 27970 50973 27997 28266 50999 28293 28509 51025 28536 28557 51051 28584 28591 51085 28626 28662 51132 28710 28722 51179 28770 28785 51214 28821 28833 51240 28860 51386 29007 29019 51436 29070 29097 51462 29124 29130 51488 29157 29205 51514 29232 51546 29265 29361 51572 29388 29494 51598 29521 29677 53798 53798 53798 22434 22441 1 
#T 55 0 60912 60965 60973 60997 60998 61029 60912 60965 60973 61073 60997 60998 61093 61029 60912 60965 60973 61093 61029 60912 60965 1 
#T 4 0 1 
#T 24 0 89326 1 
# subpath constraints, in the format 'node1 node2 node3 ... '
# 0 subpath constraints for genome
#S 1346 9976 
#S 1346 9976 
#S 1346 9976 
#S 1346 9976 
#S 1346 9976 
# 1 subpath constraints for genome
#S 10373 9977 10099 12025 10191 10234 12159 10370 10373 16008 
#S 10373 9977 10099 12025 10191 10234 12159 10370 10373 16008 
#S 16054 1 
#S 10234 12159 10370 10373 16008 
#S 16054 1 
# 2 subpath constraints for genome
#S 0 22265 22288 22290 22323 22350 22354 22265 22288 22323 22415 22350 22354 22434 22441 22290 27761 
#S 0 22265 
#S 22290 27761 
#S 0 22265 
#S 22290 27761 27831 
# 3 subpath constraints for genome
#S 0 36442 
#S 0 36442 36484 36651 36654 36712 36721 36790 36796 36823 36871 
#S 36871 1 
#S 36871 1 
#S 0 36442 
# 4 subpath constraints for genome
#S 0 47200 
#S 47324 1 
#S 0 47200 
#S 0 47200 
#S 47324 1 
# 5 subpath constraints for genome
#S 1346 9976 
#S 1346 9976 
#S 1346 9976 
#S 1346 9976 
#S 1346 9976 
# 6 subpath constraints for genome
#S 53798 22434 
#S 53798 22434 
#S 53798 22434 22441 1 
#S 53798 22434 
#S 29677 53798 53798 53798 22434 
# 7 subpath constraints for genome
#S 60965 1 
#S 60965 1 
#S 60965 1 
#S 0 60912 60965 60973 60997 60998 61029 
#S 60965 1 
# 8 subpath constraints for genome
#S 0 1 
#S 0 1 
#S 0 1 
#S 0 1 
#S 0 1 
# 9 subpath constraints for genome
#S 0 89326 
#S 0 89326 
#S 0 89326 
#S 0 89326 
#S 0 89326 
162
1345 1346 35
1346 9976 46
9976 1 30
9976 50841 21
9977 10099 39
10099 10191 22
10099 12025 25
10191 10234 23
10234 10370 15
10234 12159 20
10370 10373 33
10373 9977 19
10373 16008 21
12025 10191 15
12159 10370 9
16008 16054 29
16054 16008 25
16054 1 21
22265 22288 85
22288 22290 40
22288 22323 41
22290 22323 47
22290 27761 38
22323 22350 44
22323 22415 48
22350 22354 71
22354 22265 40
22354 22434 43
22415 22350 46
22434 22441 62
22441 22290 46
22441 1 11
27761 27831 68
27831 27912 55
27831 50921 18
27912 27916 65
27916 27943 51
27916 50947 21
27943 27970 59
27970 27997 45
27970 50973 13
27997 28266 51
28266 28293 39
28266 50999 16
28293 28509 63
28509 28536 60
28509 51025 17
28536 28557 47
28557 28584 46
28557 51051 12
28584 28591 48
28591 28626 46
28591 51085 19
28626 28662 51
28662 28710 32
28662 51132 11
28710 28722 61
28722 28770 48
28722 51179 15
28770 28785 49
28785 28821 50
28785 51214 14
28821 28833 43
28833 28860 48
28833 51240 14
28860 29007 44
28860 51386 16
29007 29019 57
29019 29070 37
29019 51436 15
29070 29097 59
29097 29124 51
29097 51462 20
29124 29130 58
29130 29157 43
29130 51488 17
29157 29205 51
29205 29232 42
29205 51514 17
29232 29265 46
29232 51546 16
29265 29361 57
29361 29388 32
29361 51572 13
29388 29494 54
29494 29521 40
29494 51598 11
29521 29677 63
29677 1 41
29677 53798 22
36442 36484 59
36484 36651 34
36484 37217 35
36651 36654 55
36654 36712 41
36654 37274 36
36712 36721 82
36721 36790 25
36721 37342 19
36790 36796 64
36796 36823 27
36796 37368 29
36823 36871 49
36871 36442 35
36871 1 40
37217 36651 26
37274 36712 22
37342 36790 34
37368 36823 28
47200 47201 40
47201 47204 92
47204 47206 54
47204 47324 42
47206 47201 26
47206 47200 15
47324 47201 18
47324 1 25
50841 1 19
50921 27912 11
50947 27943 16
50973 27997 20
50999 28293 17
51025 28536 13
51051 28584 16
51085 28626 12
51132 28710 16
51179 28770 10
51214 28821 13
51240 28860 24
51386 29007 22
51436 29070 19
51462 29124 14
51488 29157 16
51514 29232 16
51546 29265 9
51572 29388 27
51598 29521 14
53798 53798 18
53798 22434 15
60912 60965 171
60965 60973 156
60965 1 46
60973 60997 64
60973 61073 50
60973 61093 40
60997 60998 141
60998 61029 65
60998 61093 65
61029 60912 171
61073 60997 48
61093 61029 113
89326 1 21
0 9977 16
0 1346 15
0 27761 17
0 1345 30
0 22265 41
0 36442 32
0 47200 17
0 60912 43
0 1 1
0 89326 21