#gt10.kmer27.(2630000.2640000).V77.E109.mincyc100.e1.0
#construct-flow-graph.py -o graphs-g10-w10000-k27-cyc/ -g 10 -w 10000 -k 27 --mincycles 1 --nreads 5 --readlength 1000 --distribution lognormal11 --pdf
#kmersize=27
#windowsize=10000
#acyclic=False
#mincycles=1
#distribution=lognormal11
#ngenomes=10
#nreads=5
#readlength=1000
#outdir=graphs-g10-w10000-k27-cyc/
#pdf=True
#erroreps=1.0
#unique source is 0, unique sink is 1
#genomes: GCA_000005845.2_ASM584v2.fna GCA_000006665.1_ASM666v1.fna GCA_000007445.1_ASM744v1.fna GCA_000008865.2_ASM886v2.fna GCA_000009565.2_ASM956v1.fna GCA_000010245.1_ASM1024v1.fna GCA_000010385.1_ASM1038v1.fna GCA_000010485.1_ASM1048v1.fna GCA_000010745.1_ASM1074v1.fna GCA_000010765.1_ASM1076v1.fna 
# ground truth paths, in the format 'weight node1 node2 node3 ... '
#T 10 0 1345 1346 9976 1 
#T 21 0 1 
#T 24 0 24010 24017 24010 24017 1 
#T 25 0 33324 33332 33368 33383 33410 33476 33503 33560 33597 33620 33736 33774 33817 33848 33882 33889 33929 33943 33982 34090 34093 34150 34165 34192 34262 34298 34322 34393 34412 34473 34481 34538 34541 34568 34593 34659 34723 34750 34966 35058 35101 35237 35240 33324 33332 35316 33368 33383 35342 33410 33476 35368 33503 33560 35404 33597 33620 35519 33736 33774 35561 33817 33848 35594 33882 33889 35633 33929 33943 35671 33982 35778 34090 34093 35834 34150 34165 35860 34192 34262 35895 34298 34322 35965 34393 34412 36025 34473 34481 36081 34538 34541 36107 34568 34593 36172 34659 34723 36198 34750 34966 36289 35058 35101 36423 35237 35240 1 
#T 15 0 49094 1 
#T 19 0 1346 9976 50438 1 
#T 30 0 60413 1 
#T 12 0 70388 1 
#T 20 0 80363 1 
#T 53 0 90338 1 
# subpath constraints, in the format 'node1 node2 node3 ... '
# 0 subpath constraints for genome
#S 1346 9976 
#S 1346 9976 
#S 1346 9976 
#S 0 1345 1346 9976 
#S 1346 9976 
# 1 subpath constraints for genome
#S 0 1 
#S 0 1 
#S 0 1 
#S 0 1 
#S 0 1 
# 2 subpath constraints for genome
#S 0 24010 
#S 0 24010 24017 24010 24017 1 
#S 24017 1 
#S 0 24010 
#S 24017 1 
# 3 subpath constraints for genome
#S 35240 1 
#S 33929 33943 35671 33982 35778 34090 34093 35834 34150 34165 35860 34192 34262 35895 34298 34322 35965 34393 34412 36025 34473 34481 36081 34538 34541 36107 34568 34593 36172 34659 34723 36198 34750 34966 
#S 33982 35778 34090 34093 35834 34150 34165 35860 34192 34262 35895 34298 34322 35965 34393 34412 36025 34473 34481 36081 34538 34541 36107 34568 34593 36172 34659 34723 36198 34750 34966 36289 
#S 35240 1 
#S 0 33324 
# 4 subpath constraints for genome
#S 0 49094 
#S 0 49094 
#S 0 49094 
#S 0 49094 
#S 0 49094 
# 5 subpath constraints for genome
#S 1346 9976 
#S 1346 9976 
#S 1346 9976 
#S 1346 9976 
#S 9976 50438 
# 6 subpath constraints for genome
#S 0 60413 
#S 0 60413 
#S 0 60413 
#S 0 60413 
#S 0 60413 
# 7 subpath constraints for genome
#S 0 70388 
#S 0 70388 
#S 0 70388 
#S 0 70388 
#S 0 70388 
# 8 subpath constraints for genome
#S 0 80363 
#S 0 80363 
#S 0 80363 
#S 0 80363 
#S 0 80363 
# 9 subpath constraints for genome
#S 0 90338 
#S 0 90338 
#S 0 90338 
#S 0 90338 
#S 0 90338 
109
1345 1346 8
1346 9976 30
9976 1 8
9976 50438 20
24010 24017 34
24017 24010 27
24017 1 30
33324 33332 48
33332 33368 28
33332 35316 26
33368 33383 51
33383 33410 19
33383 35342 32
33410 33476 53
33476 33503 27
33476 35368 19
33503 33560 50
33560 33597 28
33560 35404 19
33597 33620 48
33620 33736 18
33620 35519 28
33736 33774 54
33774 33817 27
33774 35561 25
33817 33848 58
33848 33882 23
33848 35594 21
33882 33889 56
33889 33929 22
33889 35633 30
33929 33943 52
33943 33982 24
33943 35671 29
33982 34090 28
33982 35778 28
34090 34093 52
34093 34150 25
34093 35834 25
34150 34165 53
34165 34192 27
34165 35860 28
34192 34262 43
34262 34298 29
34262 35895 21
34298 34322 62
34322 34393 23
34322 35965 24
34393 34412 50
34412 34473 24
34412 36025 38
34473 34481 45
34481 34538 24
34481 36081 34
34538 34541 52
34541 34568 28
34541 36107 28
34568 34593 54
34593 34659 24
34593 36172 17
34659 34723 47
34723 34750 23
34723 36198 27
34750 34966 50
34966 35058 17
34966 36289 26
35058 35101 54
35101 35237 24
35101 36423 24
35237 35240 43
35240 33324 27
35240 1 30
35316 33368 24
35342 33410 30
35368 33503 25
35404 33597 28
35519 33736 29
35561 33817 29
35594 33882 31
35633 33929 24
35671 33982 30
35778 34090 29
35834 34150 24
35860 34192 22
35895 34298 24
35965 34393 29
36025 34473 24
36081 34538 26
36107 34568 26
36172 34659 31
36198 34750 29
36289 35058 22
36423 35237 22
49094 1 22
50438 1 22
60413 1 38
70388 1 16
80363 1 16
90338 1 48
0 1346 17
0 1345 8
0 1 18
0 24010 23
0 33324 36
0 49094 17
0 60413 36
0 70388 14
0 80363 28
0 90338 51