#gt10.kmer27.(4520000.4530000).V39.E60.mincyc23.e1.0
#construct-flow-graph.py -o graphs-g10-w10000-k27-cyc/ -g 10 -w 10000 -k 27 --mincycles 1 --nreads 5 --readlength 1000 --distribution lognormal11 --pdf
#kmersize=27
#windowsize=10000
#acyclic=False
#mincycles=1
#distribution=lognormal11
#ngenomes=10
#nreads=5
#readlength=1000
#outdir=graphs-g10-w10000-k27-cyc/
#pdf=True
#erroreps=1.0
#unique source is 0, unique sink is 1
#genomes: GCA_000005845.2_ASM584v2.fna GCA_000006665.1_ASM666v1.fna GCA_000007445.1_ASM744v1.fna GCA_000008865.2_ASM886v2.fna GCA_000009565.2_ASM956v1.fna GCA_000010245.1_ASM1024v1.fna GCA_000010385.1_ASM1038v1.fna GCA_000010485.1_ASM1048v1.fna GCA_000010745.1_ASM1074v1.fna GCA_000010765.1_ASM1076v1.fna 
# ground truth paths, in the format 'weight node1 node2 node3 ... '
#T 42 0 2 5296 9976 1 
#T 63 0 1 
#T 17 0 29926 1 
#T 16 0 30774 30779 30834 30843 30870 30872 30915 30942 30978 30774 30779 31082 30834 30843 31108 30870 30872 31129 30915 31155 30942 30978 1 
#T 80 0 44291 44305 44332 44353 44354 44411 44291 44305 44437 44332 44353 44411 44291 44305 44332 44353 44354 44726 44733 1 
#T 45 0 54397 2 5296 1 
#T 195 0 64372 1 
#T 20 0 68867 68893 68941 68955 69008 69010 68941 68955 68867 68893 69008 69010 44726 44733 74294 1 
#T 19 0 84269 1 
#T 133 0 94244 1 
# subpath constraints, in the format 'node1 node2 node3 ... '
# 0 subpath constraints for genome
#S 2 5296 
#S 2 5296 
#S 2 5296 
#S 2 5296 
#S 5296 9976 
# 1 subpath constraints for genome
#S 0 1 
#S 0 1 
#S 0 1 
#S 0 1 
#S 0 1 
# 2 subpath constraints for genome
#S 0 29926 
#S 0 29926 
#S 0 29926 
#S 0 29926 
#S 0 29926 
# 3 subpath constraints for genome
#S 30978 1 
#S 30978 1 
#S 30978 1 
#S 30978 1 
#S 30978 1 
# 4 subpath constraints for genome
#S 0 44291 
#S 0 44291 
#S 44733 1 
#S 0 44291 
#S 44305 44332 44353 44354 44726 44733 1 
# 5 subpath constraints for genome
#S 0 54397 
#S 2 5296 
#S 2 5296 
#S 2 5296 
#S 2 5296 
# 6 subpath constraints for genome
#S 0 64372 
#S 0 64372 
#S 0 64372 
#S 0 64372 
#S 0 64372 
# 7 subpath constraints for genome
#S 44733 74294 
#S 
#S 0 68867 
#S 44733 74294 
#S 0 68867 
# 8 subpath constraints for genome
#S 0 84269 
#S 0 84269 
#S 0 84269 
#S 0 84269 
#S 0 84269 
# 9 subpath constraints for genome
#S 0 94244 
#S 0 94244 
#S 0 94244 
#S 0 94244 
#S 0 94244 
60
2 5296 87
5296 1 43
5296 9976 47
9976 1 39
29926 1 17
30774 30779 28
30779 30834 20
30779 31082 26
30834 30843 31
30843 30870 12
30843 31108 13
30870 30872 49
30872 30915 13
30872 31129 15
30915 30942 15
30915 31155 13
30942 30978 41
30978 30774 17
30978 1 18
31082 30834 12
31108 30870 20
31129 30915 9
31155 30942 10
44291 44305 251
44305 44332 156
44305 44437 86
44332 44353 221
44353 44354 178
44353 44411 71
44354 44411 86
44354 44726 76
44411 44291 171
44437 44332 92
44726 44733 121
44733 1 73
44733 74294 17
54397 2 48
64372 1 207
68867 68893 33
68893 68941 23
68893 69008 20
68941 68955 45
68955 69008 15
68955 68867 13
69008 69010 40
69010 68941 13
69010 44726 17
74294 1 24
84269 1 22
94244 1 127
0 2 31
0 1 56
0 29926 14
0 30774 22
0 44291 75
0 54397 57
0 64372 217
0 68867 18
0 84269 32
0 94244 127