#gt10.kmer27.(4250000.4260000).V134.E188.mincyc4.e1.0
#construct-flow-graph.py -o graphs-g10-w10000-k27-cyc/ -g 10 -w 10000 -k 27 --mincycles 1 --nreads 5 --readlength 1000 --distribution lognormal11 --pdf
#kmersize=27
#windowsize=10000
#acyclic=False
#mincycles=1
#distribution=lognormal11
#ngenomes=10
#nreads=5
#readlength=1000
#outdir=graphs-g10-w10000-k27-cyc/
#pdf=True
#erroreps=1.0
#unique source is 0, unique sink is 1
#genomes: GCA_000005845.2_ASM584v2.fna GCA_000006665.1_ASM666v1.fna GCA_000007445.1_ASM744v1.fna GCA_000008865.2_ASM886v2.fna GCA_000009565.2_ASM956v1.fna GCA_000010245.1_ASM1024v1.fna GCA_000010385.1_ASM1038v1.fna GCA_000010485.1_ASM1048v1.fna GCA_000010745.1_ASM1074v1.fna GCA_000010765.1_ASM1076v1.fna 
# ground truth paths, in the format 'weight node1 node2 node3 ... '
#T 7 0 2 6386 7074 7291 7320 7350 7377 7401 7428 7431 7458 7473 7503 7557 7584 7602 7629 7656 7683 7893 7932 7951 7978 7992 8019 8032 8059 8067 8094 8127 8184 8217 8247 8343 8370 8406 8495 8502 8565 8649 8679 8685 8715 8766 8814 8854 8886 8911 8938 8955 8982 8985 9054 9069 9113 9313 9379 9385 9439 9441 9529 9532 9619 9682 9688 9715 9763 9802 9829 9856 9892 9922 9925 9952 9976 1 
#T 36 0 1 
#T 14 0 29926 1 
#T 22 0 39901 1 
#T 7 0 49876 1 
#T 101 0 52790 52876 52877 52790 52887 2 6386 1 
#T 14 0 55724 55728 55778 55779 55724 55728 56859 55778 55779 52876 52877 52790 52887 1 
#T 13 0 7074 7291 63448 7320 7350 63474 7377 7401 63500 7428 7431 63526 7458 7473 63555 7503 7557 63581 7584 7602 63607 7629 7656 63633 7683 7893 63671 7932 7951 63697 7978 7992 63723 8019 8032 63749 8059 8067 63775 8094 8127 63831 8184 8217 63860 8247 8343 63886 8370 8406 63974 8495 8502 64036 8565 8649 64065 8679 8685 64094 8715 8766 64141 8814 8854 64172 8886 8911 64198 8938 8955 64224 8982 8985 64292 9054 9069 64335 9113 9313 64400 9379 9385 64453 9439 9441 64540 9529 9532 64626 9619 64688 9682 9688 64714 9715 9763 64752 9802 9829 64778 9856 9892 64807 9922 9925 64833 9952 9976 71905 1 
#T 20 0 81254 81255 81772 81799 81880 1 
#T 7 0 81255 81772 81906 81799 81880 86269 86270 52877 52790 52887 86269 86270 1 
# subpath constraints, in the format 'node1 node2 node3 ... '
# 0 subpath constraints for genome
#S 2 6386 
#S 2 6386 
#S 6386 7074 7291 7320 7350 7377 7401 7428 7431 7458 7473 7503 7557 7584 7602 7629 7656 7683 7893 7932 7951 7978 
#S 2 6386 
#S 2 6386 
# 1 subpath constraints for genome
#S 0 1 
#S 0 1 
#S 0 1 
#S 0 1 
#S 0 1 
# 2 subpath constraints for genome
#S 0 29926 
#S 0 29926 
#S 0 29926 
#S 0 29926 
#S 0 29926 
# 3 subpath constraints for genome
#S 0 39901 
#S 0 39901 
#S 0 39901 
#S 0 39901 
#S 0 39901 
# 4 subpath constraints for genome
#S 0 49876 
#S 0 49876 
#S 0 49876 
#S 0 49876 
#S 0 49876 
# 5 subpath constraints for genome
#S 0 52790 
#S 2 6386 
#S 2 6386 
#S 2 6386 
#S 2 6386 
# 6 subpath constraints for genome
#S 0 55724 55728 55778 55779 55724 
#S 55779 52876 
#S 55779 52876 
#S 0 55724 
#S 0 55724 
# 7 subpath constraints for genome
#S 9976 71905 
#S 9976 71905 
#S 9976 71905 
#S 9976 71905 
#S 9976 71905 
# 8 subpath constraints for genome
#S 0 81254 
#S 0 81254 
#S 0 81254 
#S 0 81254 
#S 0 81254 81255 81772 
# 9 subpath constraints for genome
#S 81880 86269 
#S 81880 86269 
#S 81255 81772 81906 81799 81880 86269 
#S 86270 1 
#S 86270 52877 52790 52887 86269 86270 1 
188
2 6386 102
6386 1 114
6386 7074 3
7074 7291 17
7291 7320 7
7291 63448 11
7320 7350 21
7350 7377 9
7350 63474 16
7377 7401 20
7401 7428 5
7401 63500 11
7428 7431 26
7431 7458 6
7431 63526 22
7458 7473 25
7473 7503 13
7473 63555 11
7503 7557 18
7557 7584 4
7557 63581 6
7584 7602 15
7602 7629 6
7602 63607 8
7629 7656 28
7656 7683 5
7656 63633 12
7683 7893 22
7893 7932 10
7893 63671 8
7932 7951 14
7951 7978 8
7951 63697 14
7978 7992 25
7992 8019 6
7992 63723 10
8019 8032 16
8032 8059 4
8032 63749 9
8059 8067 21
8067 8094 3
8067 63775 17
8094 8127 30
8127 8184 11
8127 63831 14
8184 8217 14
8217 8247 6
8217 63860 13
8247 8343 23
8343 8370 11
8343 63886 20
8370 8406 13
8406 8495 7
8406 63974 11
8495 8502 17
8502 8565 13
8502 64036 18
8565 8649 21
8649 8679 4
8649 64065 13
8679 8685 10
8685 8715 12
8685 64094 17
8715 8766 20
8766 8814 4
8766 64141 10
8814 8854 18
8854 8886 10
8854 64172 6
8886 8911 17
8911 8938 5
8911 64198 13
8938 8955 23
8955 8982 7
8955 64224 18
8982 8985 24
8985 9054 15
8985 64292 14
9054 9069 20
9069 9113 8
9069 64335 11
9113 9313 24
9313 9379 5
9313 64400 16
9379 9385 19
9385 9439 6
9385 64453 15
9439 9441 20
9441 9529 8
9441 64540 11
9529 9532 18
9532 9619 5
9532 64626 10
9619 9682 3
9619 64688 12
9682 9688 21
9688 9715 9
9688 64714 15
9715 9763 15
9763 9802 2
9763 64752 21
9802 9829 15
9829 9856 4
9829 64778 11
9856 9892 27
9892 9922 11
9892 64807 16
9922 9925 16
9925 9952 13
9925 64833 11
9952 9976 19
9976 1 9
9976 71905 10
29926 1 14
39901 1 32
49876 1 5
52790 52876 99
52790 52887 109
52876 52877 121
52877 52790 118
52887 2 93
52887 1 15
52887 86269 10
55724 55728 34
55728 55778 10
55728 56859 12
55778 55779 22
55779 55724 10
55779 52876 12
56859 55778 12
63448 7320 14
63474 7377 13
63500 7428 17
63526 7458 9
63555 7503 14
63581 7584 15
63607 7629 11
63633 7683 16
63671 7932 12
63697 7978 15
63723 8019 9
63749 8059 10
63775 8094 12
63831 8184 23
63860 8247 11
63886 8370 16
63974 8495 11
64036 8565 15
64065 8679 9
64094 8715 12
64141 8814 11
64172 8886 16
64198 8938 17
64224 8982 21
64292 9054 11
64335 9113 7
64400 9379 13
64453 9439 9
64540 9529 12
64626 9619 10
64688 9682 18
64714 9715 14
64752 9802 18
64778 9856 11
64807 9922 11
64833 9952 13
71905 1 9
81254 81255 17
81255 81772 27
81772 81799 26
81772 81906 11
81799 81880 24
81880 1 15
81880 86269 9
81906 81799 9
86269 86270 21
86270 52877 6
86270 1 6
0 2 6
0 7074 18
0 81255 8
0 1 46
0 29926 22
0 39901 18
0 49876 8
0 52790 120
0 55724 19
0 81254 23