#gt10.kmer27.(1620000.1630000).V68.E101.mincyc100.e1.0
#construct-flow-graph.py -o graphs-g10-w10000-k27-cyc/ -g 10 -w 10000 -k 27 --mincycles 1 --nreads 5 --readlength 1000 --distribution lognormal11 --pdf
#kmersize=27
#windowsize=10000
#acyclic=False
#mincycles=1
#distribution=lognormal11
#ngenomes=10
#nreads=5
#readlength=1000
#outdir=graphs-g10-w10000-k27-cyc/
#pdf=True
#erroreps=1.0
#unique source is 0, unique sink is 1
#genomes: GCA_000005845.2_ASM584v2.fna GCA_000006665.1_ASM666v1.fna GCA_000007445.1_ASM744v1.fna GCA_000008865.2_ASM886v2.fna GCA_000009565.2_ASM956v1.fna GCA_000010245.1_ASM1024v1.fna GCA_000010385.1_ASM1038v1.fna GCA_000010485.1_ASM1048v1.fna GCA_000010745.1_ASM1074v1.fna GCA_000010765.1_ASM1076v1.fna 
# ground truth paths, in the format 'weight node1 node2 node3 ... '
#T 29 0 2 8262 9976 1 
#T 3 0 1 
#T 10 0 29926 1 
#T 32 0 37766 37778 1 
#T 481 0 49876 1 
#T 8 0 51590 2 8262 1 
#T 9 0 52895 52927 52931 52957 52895 52927 53000 53028 53056 53066 53078 53080 53122 53149 53164 53197 53205 53239 53260 53287 53329 53359 53386 53486 53488 53632 53815 53842 53845 53872 53899 53934 53961 54009 54058 54085 54136 54163 54189 54215 53000 53028 53056 53078 53080 53122 54267 53149 53164 54299 53197 53205 53486 53488 54494 53632 53815 54520 53842 53845 54546 53872 54572 53899 53934 54598 53961 54009 54646 54058 54672 54085 54136 54698 54163 54189 55736 55753 55736 55753 52957 52895 52927 52931 54215 53000 53028 53066 53078 53080 53239 53260 60796 53287 60837 53329 60866 53359 53386 1 
#T 20 0 65806 65919 65806 65919 1 
#T 29 0 80709 1 
#T 13 0 83772 37766 37778 90671 1 
# subpath constraints, in the format 'node1 node2 node3 ... '
# 0 subpath constraints for genome
#S 2 8262 
#S 2 8262 
#S 2 8262 
#S 8262 9976 
#S 2 8262 
# 1 subpath constraints for genome
#S 0 1 
#S 0 1 
#S 0 1 
#S 0 1 
#S 0 1 
# 2 subpath constraints for genome
#S 0 29926 
#S 0 29926 
#S 0 29926 
#S 0 29926 
#S 0 29926 
# 3 subpath constraints for genome
#S 0 37766 
#S 0 37766 
#S 0 37766 
#S 0 37766 
#S 37778 1 
# 4 subpath constraints for genome
#S 0 49876 
#S 0 49876 
#S 0 49876 
#S 0 49876 
#S 0 49876 
# 5 subpath constraints for genome
#S 2 8262 
#S 2 8262 
#S 2 8262 
#S 2 8262 
#S 0 51590 
# 6 subpath constraints for genome
#S 54085 54136 54163 54189 54215 53000 53028 53056 53078 53080 53122 54267 53149 53164 54299 53197 53205 53486 53488 54494 53632 53815 54520 53842 53845 54546 53872 54572 53899 53934 54598 53961 54009 54646 54058 54672 54085 54136 
#S 55753 55736 
#S 55753 55736 
#S 53028 53066 53078 53080 53239 53260 60796 53287 60837 53329 60866 53359 53386 1 
#S 53260 53287 53329 53359 53386 53486 53488 53632 53815 53842 53845 53872 53899 53934 53961 54009 54058 54085 54136 54163 54189 54215 53000 53028 53056 53078 
# 7 subpath constraints for genome
#S 0 65806 
#S 65919 1 
#S 0 65806 
#S 65919 1 
#S 65919 1 
# 8 subpath constraints for genome
#S 0 80709 
#S 0 80709 
#S 0 80709 
#S 0 80709 
#S 0 80709 
# 9 subpath constraints for genome
#S 0 83772 
#S 37778 90671 
#S 0 83772 
#S 0 83772 37766 37778 90671 
#S 0 83772 37766 37778 90671 
101
2 8262 23
8262 1 9
8262 9976 31
9976 1 25
29926 1 12
37766 37778 42
37778 1 36
37778 90671 9
49876 1 493
51590 2 11
52895 52927 27
52927 52931 14
52927 53000 10
52931 52957 3
52931 54215 9
52957 52895 18
53000 53028 38
53028 53056 17
53028 53066 14
53056 53066 8
53056 53078 10
53066 53078 15
53078 53080 22
53080 53122 17
53080 53239 14
53122 53149 8
53122 54267 7
53149 53164 19
53164 53197 10
53164 54299 15
53197 53205 21
53205 53239 13
53205 53486 11
53239 53260 22
53260 53287 11
53260 60796 11
53287 53329 6
53287 60837 11
53329 53359 11
53329 60866 5
53359 53386 26
53386 53486 4
53386 1 5
53486 53488 10
53488 53632 11
53488 54494 7
53632 53815 18
53815 53842 11
53815 54520 9
53842 53845 19
53845 53872 14
53845 54546 10
53872 53899 6
53872 54572 9
53899 53934 22
53934 53961 5
53934 54598 13
53961 54009 11
54009 54058 6
54009 54646 14
54058 54085 15
54058 54672 13
54085 54136 23
54136 54163 10
54136 54698 8
54163 54189 15
54189 54215 7
54189 55736 10
54215 53000 21
54267 53149 8
54299 53197 14
54494 53632 1
54520 53842 6
54546 53872 15
54572 53899 9
54598 53961 10
54646 54058 7
54672 54085 12
54698 54163 9
55736 55753 19
55753 55736 7
55753 52957 13
60796 53287 10
60837 53329 7
60866 53359 10
65806 65919 33
65919 65806 18
65919 1 13
80709 1 26
83772 37766 17
90671 1 10
0 2 25
0 1 4
0 29926 7
0 37766 41
0 49876 484
0 51590 12
0 52895 13
0 65806 13
0 80709 27
0 83772 19