#gt10.kmer27.(3280000.3290000).V67.E98.mincyc19.e1.0
#construct-flow-graph.py -o graphs-g10-w10000-k27-cyc/ -g 10 -w 10000 -k 27 --mincycles 1 --nreads 5 --readlength 1000 --distribution lognormal11 --pdf
#kmersize=27
#windowsize=10000
#acyclic=False
#mincycles=1
#distribution=lognormal11
#ngenomes=10
#nreads=5
#readlength=1000
#outdir=graphs-g10-w10000-k27-cyc/
#pdf=True
#erroreps=1.0
#unique source is 0, unique sink is 1
#genomes: GCA_000005845.2_ASM584v2.fna GCA_000006665.1_ASM666v1.fna GCA_000007445.1_ASM744v1.fna GCA_000008865.2_ASM886v2.fna GCA_000009565.2_ASM956v1.fna GCA_000010245.1_ASM1024v1.fna GCA_000010385.1_ASM1038v1.fna GCA_000010485.1_ASM1048v1.fna GCA_000010745.1_ASM1074v1.fna GCA_000010765.1_ASM1076v1.fna 
# ground truth paths, in the format 'weight node1 node2 node3 ... '
#T 29 0 146 147 9976 1 
#T 46 0 1 
#T 12 0 29926 1 
#T 6 0 39901 1 
#T 23 0 44479 44556 44557 44714 44479 44556 44750 45517 45554 45569 45596 45860 45896 46227 46255 46317 46344 46523 46550 46560 46587 47184 47220 47348 47375 47472 47499 47653 47680 47756 47799 47858 1 
#T 50 0 147 9976 49943 1 
#T 36 0 59918 1 
#T 24 0 69893 1 
#T 9 0 70173 70230 70235 70300 70303 70308 70361 70369 70394 70421 70435 70442 70173 70489 70300 70303 70308 70361 70369 70394 70599 70421 70435 70442 70308 70361 70369 70435 70442 70173 70489 70230 70235 70303 70308 70361 1 
#T 57 0 44714 44479 44556 44557 44750 45517 86272 45554 45569 86298 45596 45860 86331 45896 46227 86358 46255 46317 86384 46344 46523 86410 46550 46560 86436 46587 47184 86469 47220 47348 86495 47375 47472 86521 47499 47653 86547 47680 47756 86580 47799 47858 86701 1 
# subpath constraints, in the format 'node1 node2 node3 ... '
# 0 subpath constraints for genome
#S 147 9976 
#S 147 9976 
#S 147 9976 
#S 147 9976 
#S 147 9976 
# 1 subpath constraints for genome
#S 0 1 
#S 0 1 
#S 0 1 
#S 0 1 
#S 0 1 
# 2 subpath constraints for genome
#S 0 29926 
#S 0 29926 
#S 0 29926 
#S 0 29926 
#S 0 29926 
# 3 subpath constraints for genome
#S 0 39901 
#S 0 39901 
#S 0 39901 
#S 0 39901 
#S 0 39901 
# 4 subpath constraints for genome
#S 44750 45517 45554 45569 45596 45860 45896 46227 46255 46317 46344 46523 
#S 0 44479 
#S 0 44479 44556 44557 44714 
#S 47858 1 
#S 44750 45517 45554 45569 45596 45860 
# 5 subpath constraints for genome
#S 147 9976 
#S 147 9976 
#S 147 9976 
#S 147 9976 
#S 147 9976 
# 6 subpath constraints for genome
#S 0 59918 
#S 0 59918 
#S 0 59918 
#S 0 59918 
#S 0 59918 
# 7 subpath constraints for genome
#S 0 69893 
#S 0 69893 
#S 0 69893 
#S 0 69893 
#S 0 69893 
# 8 subpath constraints for genome
#S 0 70173 70230 70235 70300 70303 70308 70361 70369 70394 70421 70435 70442 70173 70489 70300 70303 70308 70361 70369 70394 70599 70421 70435 70442 70308 70361 70369 70435 70442 70173 70489 70230 70235 70303 70308 70361 1 
#S 70361 1 
#S 0 70173 70230 70235 70300 70303 70308 70361 70369 70394 70421 70435 70442 70173 70489 70300 70303 70308 70361 70369 70394 70599 70421 70435 70442 70308 70361 70369 70435 70442 70173 70489 70230 70235 70303 70308 70361 1 
#S 70489 70300 70303 70308 70361 70369 70394 70599 70421 70435 70442 70308 70361 70369 70435 70442 70173 70489 70230 70235 70303 70308 70361 1 
#S 70361 1 
# 9 subpath constraints for genome
#S 0 44714 
#S 47858 86701 
#S 0 44714 
#S 0 44714 
#S 44750 45517 86272 45554 45569 86298 45596 45860 
98
146 147 39
147 9976 58
9976 1 26
9976 49943 45
29926 1 12
39901 1 7
44479 44556 94
44556 44557 85
44556 44750 15
44557 44714 24
44557 44750 60
44714 44479 70
44750 45517 73
45517 45554 32
45517 86272 48
45554 45569 89
45569 45596 24
45569 86298 57
45596 45860 82
45860 45896 24
45860 86331 62
45896 46227 74
46227 46255 17
46227 86358 59
46255 46317 83
46317 46344 25
46317 86384 73
46344 46523 80
46523 46550 16
46523 86410 48
46550 46560 88
46560 46587 23
46560 86436 60
46587 47184 70
47184 47220 19
47184 86469 52
47220 47348 71
47348 47375 22
47348 86495 76
47375 47472 71
47472 47499 24
47472 86521 49
47499 47653 81
47653 47680 20
47653 86547 60
47680 47756 80
47756 47799 31
47756 86580 44
47799 47858 77
47858 1 18
47858 86701 54
49943 1 42
59918 1 30
69893 1 25
70173 70230 14
70173 70489 19
70230 70235 17
70235 70300 6
70235 70303 13
70300 70303 19
70303 70308 28
70308 70361 37
70361 70369 33
70361 1 8
70369 70394 16
70369 70435 13
70394 70421 7
70394 70599 6
70421 70435 14
70435 70442 27
70442 70173 18
70442 70308 9
70489 70300 11
70489 70230 8
70599 70421 11
86272 45554 56
86298 45596 68
86331 45896 66
86358 46255 75
86384 46344 53
86410 46550 55
86436 46587 51
86469 47220 65
86495 47375 41
86521 47499 63
86547 47680 65
86580 47799 45
86701 1 66
0 147 52
0 146 33
0 1 58
0 29926 23
0 39901 4
0 44479 28
0 59918 39
0 69893 23
0 70173 2
0 44714 58