#gt10.kmer27.(470000.480000).V198.E271.mincyc2.e1.0
#construct-flow-graph.py -o graphs-g10-w10000-k27-cyc/ -g 10 -w 10000 -k 27 --mincycles 1 --nreads 5 --readlength 1000 --distribution lognormal11 --pdf
#kmersize=27
#windowsize=10000
#acyclic=False
#mincycles=1
#distribution=lognormal11
#ngenomes=10
#nreads=5
#readlength=1000
#outdir=graphs-g10-w10000-k27-cyc/
#pdf=True
#erroreps=1.0
#unique source is 0, unique sink is 1
#genomes: GCA_000005845.2_ASM584v2.fna GCA_000006665.1_ASM666v1.fna GCA_000007445.1_ASM744v1.fna GCA_000008865.2_ASM886v2.fna GCA_000009565.2_ASM956v1.fna GCA_000010245.1_ASM1024v1.fna GCA_000010385.1_ASM1038v1.fna GCA_000010485.1_ASM1048v1.fna GCA_000010745.1_ASM1074v1.fna GCA_000010765.1_ASM1076v1.fna 
# ground truth paths, in the format 'weight node1 node2 node3 ... '
#T 23 0 2 99 166 240 297 300 327 366 393 402 429 441 468 512 546 593 620 649 676 718 745 778 797 824 832 859 931 964 1054 1090 1114 1141 1208 1237 1270 1297 1330 1357 1386 9976 1 
#T 14 0 9977 9978 13203 13206 19951 1 
#T 103 0 1 
#T 16 0 9978 13203 13206 19951 29927 1 
#T 4 0 13203 13206 37565 37585 37634 37655 37565 37585 37713 37634 37655 37565 37585 37713 37634 37655 1 
#T 12 0 778 797 824 832 859 931 964 1054 1090 1114 1141 1208 1237 1270 1297 1330 1357 1386 9976 40530 1 
#T 16 0 42545 42546 42662 42689 42790 42817 42859 42891 42898 42925 43672 43699 43765 43792 43918 43966 44056 44083 44368 44395 44427 44454 44473 44500 44837 44864 44927 44954 45020 45047 45177 45204 45499 45526 45670 45697 46528 46555 47424 47451 47538 47565 47670 47697 48032 48059 48632 48659 48665 48707 48877 48927 48942 48969 48973 49000 49008 49041 49158 49185 49191 49311 49327 49355 49365 49397 49461 49497 49551 49587 49902 49929 49983 50020 50064 50094 50208 50235 50241 50268 50336 50366 50505 1 
#T 73 0 60480 1 
#T 14 0 69070 2 99 69136 166 240 69192 297 300 69218 327 366 69244 393 402 69270 429 441 69296 468 512 69329 546 593 69355 620 649 69381 676 718 69407 745 778 797 69433 824 832 69459 859 931 69491 964 1054 69526 1090 1114 69552 1141 1208 69580 1237 1270 69606 1297 1330 69632 1357 1386 1 
#T 71 0 42546 42662 69658 42689 42790 69684 42817 42859 69715 42891 42898 69741 42925 43672 69767 43699 43765 69793 43792 43918 69840 43966 44056 69866 44083 44368 69892 44395 44427 69918 44454 44473 69944 44500 44837 69970 44864 44927 69996 44954 45020 70022 45047 45177 70048 45204 45499 70074 45526 45670 70100 45697 46528 70126 46555 47424 70152 47451 47538 70178 47565 47670 70204 47697 48032 70230 48059 48632 70256 48659 48665 70297 48707 48877 70346 48927 48942 70372 48969 48973 70398 49000 49008 70430 49041 49158 70456 49185 49191 70575 49311 49327 70602 49355 49365 70633 49397 49461 70668 49497 49551 70703 49587 49902 70729 49929 49983 70765 50020 50064 70794 50094 50208 70820 50235 50241 70846 50268 50336 71000 50366 50505 72890 1 
# subpath constraints, in the format 'node1 node2 node3 ... '
# 0 subpath constraints for genome
#S 1386 9976 
#S 1386 9976 
#S 718 745 778 797 824 832 859 931 964 1054 1090 1114 1141 1208 1237 1270 1297 1330 1357 1386 9976 
#S 1386 9976 
#S 1386 9976 
# 1 subpath constraints for genome
#S 13206 19951 
#S 13206 19951 
#S 13206 19951 
#S 9978 13203 
#S 13206 19951 
# 2 subpath constraints for genome
#S 0 1 
#S 0 1 
#S 0 1 
#S 0 1 
#S 0 1 
# 3 subpath constraints for genome
#S 13206 19951 
#S 13206 19951 
#S 9978 13203 
#S 9978 13203 
#S 13206 19951 
# 4 subpath constraints for genome
#S 0 13203 
#S 0 13203 
#S 0 13203 
#S 0 13203 
#S 37655 1 
# 5 subpath constraints for genome
#S 1386 9976 
#S 1386 9976 
#S 1386 9976 
#S 1386 9976 
#S 1386 9976 
# 6 subpath constraints for genome
#S 45526 45670 45697 46528 46555 
#S 44500 44837 44864 44927 44954 45020 45047 45177 45204 45499 45526 45670 45697 46528 
#S 49587 49902 49929 49983 50020 50064 50094 50208 50235 50241 50268 50336 50366 50505 
#S 49587 49902 49929 49983 50020 50064 50094 50208 50235 50241 50268 50336 50366 50505 
#S 42925 43672 43699 43765 43792 43918 43966 44056 44083 
# 7 subpath constraints for genome
#S 0 60480 
#S 0 60480 
#S 0 60480 
#S 0 60480 
#S 0 60480 
# 8 subpath constraints for genome
#S 0 69070 2 99 69136 166 240 69192 297 300 69218 327 366 69244 393 402 69270 429 441 69296 468 512 69329 546 593 69355 620 649 69381 676 718 69407 745 778 797 69433 824 832 69459 859 931 69491 
#S 0 69070 
#S 0 69070 
#S 0 69070 
#S 0 69070 
# 9 subpath constraints for genome
#S 42859 69715 42891 42898 69741 42925 43672 69767 43699 43765 69793 43792 43918 
#S 49587 49902 70729 49929 49983 70765 50020 50064 70794 50094 50208 70820 50235 50241 70846 50268 50336 71000 50366 50505 72890 
#S 45697 46528 70126 46555 47424 
#S 42689 42790 69684 42817 42859 69715 42891 42898 69741 42925 43672 69767 
#S 48942 70372 48969 48973 70398 49000 49008 70430 49041 49158 70456 49185 49191 70575 49311 49327 70602 49355 49365 70633 49397 49461 70668 49497 49551 70703 49587 49902 70729 49929 49983 
271
2 99 42
99 166 23
99 69136 16
166 240 31
240 297 23
240 69192 12
297 300 27
300 327 21
300 69218 12
327 366 42
366 393 19
366 69244 15
393 402 44
402 429 25
402 69270 12
429 441 30
441 468 18
441 69296 14
468 512 35
512 546 25
512 69329 27
546 593 31
593 620 24
593 69355 19
620 649 40
649 676 17
649 69381 9
676 718 35
718 745 27
718 69407 12
745 778 34
778 797 43
797 824 29
797 69433 18
824 832 42
832 859 30
832 69459 14
859 931 52
931 964 53
931 69491 9
964 1054 52
1054 1090 37
1054 69526 19
1090 1114 52
1114 1141 29
1114 69552 15
1141 1208 58
1208 1237 32
1208 69580 15
1237 1270 45
1270 1297 33
1270 69606 9
1297 1330 53
1330 1357 41
1330 69632 17
1357 1386 45
1386 1 15
1386 9976 32
9976 1 18
9976 40530 7
9977 9978 12
9978 13203 26
13203 13206 40
13206 19951 32
13206 37565 4
19951 29927 15
19951 1 16
29927 1 16
37565 37585 12
37585 37634 3
37585 37713 6
37634 37655 10
37655 37565 5
37655 1 2
37713 37634 12
40530 1 10
42545 42546 12
42546 42662 76
42662 42689 16
42662 69658 65
42689 42790 113
42790 42817 10
42790 69684 60
42817 42859 90
42859 42891 16
42859 69715 68
42891 42898 58
42898 42925 17
42898 69741 61
42925 43672 86
43672 43699 12
43672 69767 53
43699 43765 87
43765 43792 16
43765 69793 63
43792 43918 92
43918 43966 12
43918 69840 64
43966 44056 96
44056 44083 12
44056 69866 72
44083 44368 90
44368 44395 14
44368 69892 67
44395 44427 75
44427 44454 18
44427 69918 89
44454 44473 73
44473 44500 19
44473 69944 72
44500 44837 80
44837 44864 20
44837 69970 75
44864 44927 81
44927 44954 13
44927 69996 77
44954 45020 96
45020 45047 16
45020 70022 73
45047 45177 84
45177 45204 11
45177 70048 70
45204 45499 66
45499 45526 16
45499 70074 93
45526 45670 89
45670 45697 21
45670 70100 66
45697 46528 82
46528 46555 19
46528 70126 81
46555 47424 94
47424 47451 16
47424 70152 66
47451 47538 84
47538 47565 14
47538 70178 79
47565 47670 84
47670 47697 19
47670 70204 78
47697 48032 114
48032 48059 24
48032 70230 69
48059 48632 96
48632 48659 22
48632 70256 56
48659 48665 100
48665 48707 15
48665 70297 84
48707 48877 91
48877 48927 19
48877 70346 68
48927 48942 79
48942 48969 12
48942 70372 84
48969 48973 88
48973 49000 12
48973 70398 66
49000 49008 80
49008 49041 25
49008 70430 62
49041 49158 90
49158 49185 22
49158 70456 83
49185 49191 95
49191 49311 17
49191 70575 59
49311 49327 73
49327 49355 19
49327 70602 70
49355 49365 78
49365 49397 25
49365 70633 68
49397 49461 80
49461 49497 16
49461 70668 85
49497 49551 80
49551 49587 13
49551 70703 58
49587 49902 75
49902 49929 15
49902 70729 72
49929 49983 81
49983 50020 21
49983 70765 72
50020 50064 96
50064 50094 15
50064 70794 71
50094 50208 114
50208 50235 19
50208 70820 68
50235 50241 80
50241 50268 15
50241 70846 57
50268 50336 93
50336 50366 11
50336 71000 76
50366 50505 67
50505 1 13
50505 72890 76
60480 1 72
69070 2 14
69136 166 13
69192 297 13
69218 327 16
69244 393 8
69270 429 16
69296 468 11
69329 546 12
69355 620 12
69381 676 15
69407 745 12
69433 824 7
69459 859 13
69491 964 18
69526 1090 11
69552 1141 10
69580 1237 16
69606 1297 13
69632 1357 15
69658 42689 76
69684 42817 71
69715 42891 68
69741 42925 58
69767 43699 74
69793 43792 59
69840 43966 89
69866 44083 67
69892 44395 70
69918 44454 84
69944 44500 73
69970 44864 75
69996 44954 82
70022 45047 72
70048 45204 74
70074 45526 60
70100 45697 64
70126 46555 75
70152 47451 68
70178 47565 68
70204 47697 68
70230 48059 61
70256 48659 71
70297 48707 79
70346 48927 70
70372 48969 56
70398 49000 63
70430 49041 88
70456 49185 83
70575 49311 77
70602 49355 82
70633 49397 70
70668 49497 69
70703 49587 61
70729 49929 69
70765 50020 77
70794 50094 63
70820 50235 73
70846 50268 80
71000 50366 74
72890 1 69
0 2 22
0 9977 8
0 9978 10
0 778 14
0 42546 83
0 1 102
0 13203 3
0 42545 15
0 60480 71
0 69070 17