#gt10.kmer27.(2980000.2990000).V178.E244.mincyc2.e1.0
#construct-flow-graph.py -o graphs-g10-w10000-k27-cyc/ -g 10 -w 10000 -k 27 --mincycles 1 --nreads 5 --readlength 1000 --distribution lognormal11 --pdf
#kmersize=27
#windowsize=10000
#acyclic=False
#mincycles=1
#distribution=lognormal11
#ngenomes=10
#nreads=5
#readlength=1000
#outdir=graphs-g10-w10000-k27-cyc/
#pdf=True
#erroreps=1.0
#unique source is 0, unique sink is 1
#genomes: GCA_000005845.2_ASM584v2.fna GCA_000006665.1_ASM666v1.fna GCA_000007445.1_ASM744v1.fna GCA_000008865.2_ASM886v2.fna GCA_000009565.2_ASM956v1.fna GCA_000010245.1_ASM1024v1.fna GCA_000010385.1_ASM1038v1.fna GCA_000010485.1_ASM1048v1.fna GCA_000010745.1_ASM1074v1.fna GCA_000010765.1_ASM1076v1.fna 
# ground truth paths, in the format 'weight node1 node2 node3 ... '
#T 72 0 1345 1346 9976 1 
#T 19 0 12535 12538 12547 12685 12535 12538 12547 12685 12535 12538 12547 12833 12685 12535 12538 1 
#T 150 0 23650 23651 23656 23725 23794 23821 23842 23980 23992 24031 24064 24107 24115 24142 24172 24217 24301 24328 24365 24392 24475 24523 24592 24619 24667 24694 24718 24763 24769 24796 24949 24976 25024 25051 25371 25398 25845 25872 25917 25944 25962 26007 26064 26091 26151 26214 26226 26253 26331 26397 26406 26433 26652 26679 26752 26779 26787 26817 26854 26880 26940 27012 27075 27111 27138 27165 27180 27207 27215 27249 27279 27306 27495 27534 27561 27588 27601 27628 27645 27684 27762 27801 27810 27882 27927 27954 28011 28020 28056 28098 28131 28168 28195 28198 28286 28311 28502 28601 28677 28694 28721 28809 28836 29400 29433 29482 29506 29735 1 
#T 24 0 1 
#T 69 0 49685 1 
#T 9 0 1346 9976 51029 1 
#T 11 0 23651 23656 51097 23725 23794 51123 23821 23842 51260 23980 23992 51298 24031 24064 51340 24107 24115 51366 24142 24172 51410 24217 24301 51436 24328 24365 51462 24392 24475 51509 24523 24592 51535 24619 24667 51561 24694 24718 51605 24763 24769 51631 24796 24949 51657 24976 25024 51683 25051 25371 51709 25398 25845 51735 25872 25917 51761 25944 25962 51805 26007 26064 51831 26091 26151 51893 26214 26226 51919 26253 26331 51984 26397 26406 52010 26433 26652 52036 26679 26752 52062 26779 26787 52091 26817 52127 26854 26880 52186 26940 27012 52248 27075 27111 52274 27138 52300 27165 27180 52326 27207 27215 52359 27249 27279 52385 27306 27495 52423 27534 27561 52449 27588 27601 52475 27628 27645 52513 27684 27762 52551 27801 27810 52622 27882 27927 52648 27954 52704 28011 28020 52739 28056 28098 52771 28131 28168 52797 28195 28198 52886 28286 28311 53076 28502 28601 53150 28677 28694 53176 28721 28809 53202 28836 29400 53234 29433 29482 53256 29506 29735 57146 1 
#T 9 0 67121 1 
#T 11 0 77096 1 
#T 7 0 87071 1 
# subpath constraints, in the format 'node1 node2 node3 ... '
# 0 subpath constraints for genome
#S 1346 9976 
#S 0 1345 1346 9976 
#S 1346 9976 
#S 1346 9976 
#S 1346 9976 
# 1 subpath constraints for genome
#S 12538 1 
#S 0 12535 12538 12547 12685 12535 12538 12547 12685 12535 12538 12547 12833 12685 12535 12538 1 
#S 0 12535 
#S 0 12535 
#S 12538 1 
# 2 subpath constraints for genome
#S 28836 29400 29433 29482 29506 29735 
#S 25398 25845 25872 25917 25944 25962 26007 26064 26091 26151 26214 26226 26253 26331 26397 26406 26433 26652 26679 26752 26779 26787 
#S 27684 27762 27801 27810 27882 27927 27954 28011 28020 28056 28098 28131 28168 28195 28198 28286 28311 28502 28601 28677 28694 28721 28809 
#S 24064 24107 24115 24142 24172 24217 24301 24328 24365 24392 24475 24523 24592 24619 24667 24694 24718 24763 24769 24796 24949 24976 25024 25051 25371 
#S 24718 24763 24769 24796 24949 24976 25024 25051 25371 25398 25845 
# 3 subpath constraints for genome
#S 0 1 
#S 0 1 
#S 0 1 
#S 0 1 
#S 0 1 
# 4 subpath constraints for genome
#S 0 49685 
#S 0 49685 
#S 0 49685 
#S 0 49685 
#S 0 49685 
# 5 subpath constraints for genome
#S 9976 51029 
#S 1346 9976 
#S 1346 9976 
#S 1346 9976 
#S 1346 9976 
# 6 subpath constraints for genome
#S 24523 24592 51535 24619 24667 51561 24694 24718 51605 24763 24769 51631 24796 24949 51657 24976 25024 51683 25051 25371 51709 25398 25845 
#S 29735 57146 
#S 25371 51709 25398 25845 51735 25872 25917 51761 25944 25962 51805 26007 26064 51831 26091 26151 51893 26214 26226 51919 26253 26331 51984 
#S 23725 23794 51123 23821 23842 51260 23980 23992 51298 24031 24064 51340 24107 24115 51366 24142 24172 51410 24217 24301 51436 24328 24365 51462 24392 24475 51509 24523 24592 51535 24619 24667 51561 24694 24718 51605 
#S 29735 57146 
# 7 subpath constraints for genome
#S 0 67121 
#S 0 67121 
#S 0 67121 
#S 0 67121 
#S 0 67121 
# 8 subpath constraints for genome
#S 0 77096 
#S 0 77096 
#S 0 77096 
#S 0 77096 
#S 0 77096 
# 9 subpath constraints for genome
#S 0 87071 
#S 0 87071 
#S 0 87071 
#S 0 87071 
#S 0 87071 
244
1345 1346 67
1346 9976 94
9976 1 62
9976 51029 10
12535 12538 79
12538 12547 45
12538 1 20
12547 12685 40
12547 12833 28
12685 12535 41
12833 12685 12
23650 23651 144
23651 23656 174
23656 23725 146
23656 51097 9
23725 23794 172
23794 23821 132
23794 51123 12
23821 23842 158
23842 23980 143
23842 51260 11
23980 23992 146
23992 24031 152
23992 51298 10
24031 24064 172
24064 24107 131
24064 51340 14
24107 24115 175
24115 24142 145
24115 51366 9
24142 24172 151
24172 24217 181
24172 51410 11
24217 24301 158
24301 24328 165
24301 51436 9
24328 24365 156
24365 24392 131
24365 51462 13
24392 24475 149
24475 24523 157
24475 51509 8
24523 24592 164
24592 24619 145
24592 51535 9
24619 24667 156
24667 24694 162
24667 51561 9
24694 24718 166
24718 24763 152
24718 51605 8
24763 24769 161
24769 24796 138
24769 51631 11
24796 24949 154
24949 24976 138
24949 51657 9
24976 25024 172
25024 25051 140
25024 51683 13
25051 25371 163
25371 25398 163
25371 51709 7
25398 25845 158
25845 25872 145
25845 51735 10
25872 25917 161
25917 25944 151
25917 51761 12
25944 25962 176
25962 26007 156
25962 51805 15
26007 26064 172
26064 26091 181
26064 51831 10
26091 26151 172
26151 26214 142
26151 51893 7
26214 26226 153
26226 26253 125
26226 51919 15
26253 26331 163
26331 26397 139
26331 51984 9
26397 26406 148
26406 26433 162
26406 52010 10
26433 26652 174
26652 26679 141
26652 52036 8
26679 26752 156
26752 26779 141
26752 52062 13
26779 26787 148
26787 26817 150
26787 52091 11
26817 26854 145
26817 52127 13
26854 26880 165
26880 26940 156
26880 52186 17
26940 27012 163
27012 27075 165
27012 52248 11
27075 27111 202
27111 27138 149
27111 52274 6
27138 27165 155
27138 52300 14
27165 27180 180
27180 27207 166
27180 52326 14
27207 27215 145
27215 27249 159
27215 52359 11
27249 27279 177
27279 27306 137
27279 52385 13
27306 27495 165
27495 27534 170
27495 52423 12
27534 27561 158
27561 27588 177
27561 52449 6
27588 27601 143
27601 27628 141
27601 52475 11
27628 27645 154
27645 27684 137
27645 52513 14
27684 27762 155
27762 27801 167
27762 52551 12
27801 27810 178
27810 27882 166
27810 52622 7
27882 27927 164
27927 27954 135
27927 52648 12
27954 28011 152
27954 52704 7
28011 28020 136
28020 28056 151
28020 52739 9
28056 28098 160
28098 28131 146
28098 52771 8
28131 28168 130
28168 28195 161
28168 52797 11
28195 28198 146
28198 28286 156
28198 52886 6
28286 28311 144
28311 28502 168
28311 53076 8
28502 28601 164
28601 28677 171
28601 53150 16
28677 28694 152
28694 28721 142
28694 53176 11
28721 28809 138
28809 28836 159
28809 53202 14
28836 29400 176
29400 29433 130
29400 53234 16
29433 29482 149
29482 29506 161
29482 53256 7
29506 29735 177
29735 1 152
29735 57146 13
49685 1 56
51029 1 13
51097 23725 22
51123 23821 9
51260 23980 11
51298 24031 15
51340 24107 20
51366 24142 12
51410 24217 12
51436 24328 12
51462 24392 16
51509 24523 9
51535 24619 10
51561 24694 7
51605 24763 21
51631 24796 11
51657 24976 8
51683 25051 8
51709 25398 11
51735 25872 12
51761 25944 6
51805 26007 11
51831 26091 10
51893 26214 13
51919 26253 8
51984 26397 15
52010 26433 6
52036 26679 16
52062 26779 16
52091 26817 11
52127 26854 8
52186 26940 7
52248 27075 14
52274 27138 7
52300 27165 12
52326 27207 8
52359 27249 12
52385 27306 12
52423 27534 11
52449 27588 10
52475 27628 9
52513 27684 9
52551 27801 9
52622 27882 8
52648 27954 12
52704 28011 11
52739 28056 11
52771 28131 17
52797 28195 12
52886 28286 10
53076 28502 12
53150 28677 8
53176 28721 8
53202 28836 19
53234 29433 7
53256 29506 15
57146 1 18
67121 1 5
77096 1 13
87071 1 6
0 1346 10
0 23651 12
0 1345 75
0 12535 15
0 23650 131
0 1 20
0 49685 79
0 67121 9
0 77096 9
0 87071 6