#gt10.kmer27.(840000.850000).V104.E145.mincyc1.e1.0
#construct-flow-graph.py -o graphs-g10-w10000-k27-cyc/ -g 10 -w 10000 -k 27 --mincycles 1 --nreads 5 --readlength 1000 --distribution lognormal11 --pdf
#kmersize=27
#windowsize=10000
#acyclic=False
#mincycles=1
#distribution=lognormal11
#ngenomes=10
#nreads=5
#readlength=1000
#outdir=graphs-g10-w10000-k27-cyc/
#pdf=True
#erroreps=1.0
#unique source is 0, unique sink is 1
#genomes: GCA_000005845.2_ASM584v2.fna GCA_000006665.1_ASM666v1.fna GCA_000007445.1_ASM744v1.fna GCA_000008865.2_ASM886v2.fna GCA_000009565.2_ASM956v1.fna GCA_000010245.1_ASM1024v1.fna GCA_000010385.1_ASM1038v1.fna GCA_000010485.1_ASM1048v1.fna GCA_000010745.1_ASM1074v1.fna GCA_000010765.1_ASM1076v1.fna 
# ground truth paths, in the format 'weight node1 node2 node3 ... '
#T 22 0 2 9554 9976 1 
#T 38 0 9977 10082 10109 10145 10175 10196 10223 10229 10274 10295 10322 10340 10367 10529 10559 10613 10640 10682 10733 10841 10868 10998 11025 11114 11141 11204 11231 11312 11339 11435 11468 11630 11664 11691 11738 11774 11882 11909 11942 11969 12083 12119 12298 12325 12502 12535 12568 12619 12622 12649 12658 12691 12775 12802 12862 12889 12901 12949 13217 14993 15020 19951 1 
#T 14 0 1 
#T 69 0 11630 11664 11691 11738 11774 11882 11909 11942 11969 12083 12119 12298 12325 12502 12535 12568 12619 12622 12649 12658 12691 12775 12802 12862 12889 12901 12949 13217 14993 29952 15020 19951 31605 1 
#T 20 0 41580 1 
#T 3 0 42002 2 9554 1 
#T 8 0 46071 9977 10082 46097 10109 10145 46126 10175 10196 46152 10223 10229 46196 10274 10295 46222 10322 10340 46248 10367 10529 46277 10559 10613 46303 10640 10682 46353 10733 10841 46379 10868 10998 46405 11025 11114 46431 11141 11204 46457 11231 11312 46483 11339 11435 46515 11468 11630 11664 46541 11691 11738 46576 11774 11882 46602 11909 11942 46628 11969 12083 46663 12119 12298 46689 12325 12502 46721 12535 12568 46771 12619 12622 46797 12649 12658 46829 12691 12775 46855 12802 12862 46881 12889 12901 46928 12949 13217 1 
#T 24 0 59568 1 
#T 16 0 69543 1 
#T 72 0 78431 78452 78431 78452 1 
# subpath constraints, in the format 'node1 node2 node3 ... '
# 0 subpath constraints for genome
#S 2 9554 
#S 2 9554 
#S 2 9554 9976 
#S 2 9554 
#S 2 9554 9976 
# 1 subpath constraints for genome
#S 11942 11969 12083 12119 12298 12325 12502 12535 12568 12619 12622 12649 12658 12691 12775 12802 12862 12889 12901 12949 
#S 11969 12083 12119 12298 12325 12502 12535 12568 12619 12622 12649 12658 12691 12775 12802 12862 12889 12901 12949 13217 
#S 12949 13217 14993 
#S 15020 19951 
#S 13217 14993 
# 2 subpath constraints for genome
#S 0 1 
#S 0 1 
#S 0 1 
#S 0 1 
#S 0 1 
# 3 subpath constraints for genome
#S 13217 14993 
#S 12949 13217 14993 
#S 15020 19951 
#S 15020 19951 31605 
#S 12775 12802 12862 12889 12901 12949 13217 14993 
# 4 subpath constraints for genome
#S 0 41580 
#S 0 41580 
#S 0 41580 
#S 0 41580 
#S 0 41580 
# 5 subpath constraints for genome
#S 2 9554 
#S 2 9554 
#S 2 9554 
#S 2 9554 
#S 2 9554 
# 6 subpath constraints for genome
#S 0 46071 
#S 0 46071 
#S 10733 10841 46379 10868 10998 46405 11025 11114 46431 11141 11204 46457 11231 11312 46483 11339 11435 46515 11468 11630 11664 46541 11691 11738 46576 11774 11882 
#S 0 46071 
#S 0 46071 9977 10082 46097 
# 7 subpath constraints for genome
#S 0 59568 
#S 0 59568 
#S 0 59568 
#S 0 59568 
#S 0 59568 
# 8 subpath constraints for genome
#S 0 69543 
#S 0 69543 
#S 0 69543 
#S 0 69543 
#S 0 69543 
# 9 subpath constraints for genome
#S 0 78431 78452 78431 
#S 0 78431 
#S 0 78431 
#S 0 78431 
#S 0 78431 
145
2 9554 30
9554 1 6
9554 9976 20
9976 1 14
9977 10082 37
10082 10109 37
10082 46097 9
10109 10145 47
10145 10175 34
10145 46126 5
10175 10196 34
10196 10223 37
10196 46152 4
10223 10229 54
10229 10274 30
10229 46196 9
10274 10295 64
10295 10322 28
10295 46222 12
10322 10340 53
10340 10367 37
10340 46248 9
10367 10529 52
10529 10559 37
10529 46277 8
10559 10613 46
10613 10640 35
10613 46303 14
10640 10682 43
10682 10733 31
10682 46353 6
10733 10841 47
10841 10868 47
10841 46379 6
10868 10998 44
10998 11025 39
10998 46405 12
11025 11114 46
11114 11141 40
11114 46431 6
11141 11204 52
11204 11231 29
11204 46457 9
11231 11312 45
11312 11339 40
11312 46483 6
11339 11435 45
11435 11468 41
11435 46515 6
11468 11630 54
11630 11664 106
11664 11691 111
11664 46541 13
11691 11738 102
11738 11774 101
11738 46576 11
11774 11882 107
11882 11909 119
11882 46602 11
11909 11942 114
11942 11969 89
11942 46628 12
11969 12083 122
12083 12119 114
12083 46663 15
12119 12298 115
12298 12325 94
12298 46689 11
12325 12502 117
12502 12535 118
12502 46721 10
12535 12568 93
12568 12619 117
12568 46771 10
12619 12622 131
12622 12649 92
12622 46797 9
12649 12658 114
12658 12691 95
12658 46829 13
12691 12775 109
12775 12802 114
12775 46855 8
12802 12862 122
12862 12889 106
12862 46881 5
12889 12901 101
12901 12949 122
12901 46928 8
12949 13217 109
13217 14993 95
13217 1 8
14993 15020 38
14993 29952 70
15020 19951 107
19951 1 46
19951 31605 69
29952 15020 64
31605 1 67
41580 1 21
42002 2 7
46071 9977 9
46097 10109 9
46126 10175 8
46152 10223 10
46196 10274 3
46222 10322 7
46248 10367 9
46277 10559 12
46303 10640 7
46353 10733 13
46379 10868 5
46405 11025 10
46431 11141 11
46457 11231 13
46483 11339 9
46515 11468 6
46541 11691 10
46576 11774 12
46602 11909 5
46628 11969 10
46663 12119 6
46689 12325 6
46721 12535 10
46771 12619 3
46797 12649 3
46829 12691 6
46855 12802 10
46881 12889 8
46928 12949 6
59568 1 28
69543 1 20
78431 78452 137
78452 78431 72
78452 1 75
0 2 22
0 9977 44
0 11630 57
0 1 13
0 41580 27
0 42002 3
0 46071 9
0 59568 19
0 69543 15
0 78431 68