#gt10.kmer27.(930000.940000).V192.E265.mincyc6.e1.0
#construct-flow-graph.py -o graphs-g10-w10000-k27-cyc/ -g 10 -w 10000 -k 27 --mincycles 1 --nreads 5 --readlength 1000 --distribution lognormal11 --pdf
#kmersize=27
#windowsize=10000
#acyclic=False
#mincycles=1
#distribution=lognormal11
#ngenomes=10
#nreads=5
#readlength=1000
#outdir=graphs-g10-w10000-k27-cyc/
#pdf=True
#erroreps=1.0
#unique source is 0, unique sink is 1
#genomes: GCA_000005845.2_ASM584v2.fna GCA_000006665.1_ASM666v1.fna GCA_000007445.1_ASM744v1.fna GCA_000008865.2_ASM886v2.fna GCA_000009565.2_ASM956v1.fna GCA_000010245.1_ASM1024v1.fna GCA_000010385.1_ASM1038v1.fna GCA_000010485.1_ASM1048v1.fna GCA_000010745.1_ASM1074v1.fna GCA_000010765.1_ASM1076v1.fna 
# ground truth paths, in the format 'weight node1 node2 node3 ... '
#T 7 0 2 8 86 116 206 233 415 449 467 494 3215 3242 3258 3297 3409 3436 3507 3534 3714 3754 3801 3828 3846 3906 4164 4191 4258 4285 4452 4488 4569 4596 4606 4633 4683 4722 4887 5469 5472 5553 5559 5469 5472 5587 5553 5559 9543 9965 1 
#T 17 0 11616 11617 12069 12096 12191 12218 13676 13703 15401 15428 16940 16966 19940 1 
#T 31 0 1 
#T 139 0 11617 12069 29941 12096 12191 29967 12218 13676 29993 13703 15401 30019 15428 16940 30043 16966 19940 31695 1 
#T 15 0 32235 32268 32370 32391 32235 32268 32370 32431 32391 32235 32268 36132 36173 36200 36274 36302 36353 36380 36428 36509 36533 8 86 36588 116 206 36614 233 415 36647 449 467 36673 494 3215 36699 3242 3258 36737 3297 3409 36763 3436 3507 36789 3534 3714 36828 3754 3801 36854 3828 3846 36913 3906 4164 36939 4191 4258 36965 4285 4452 37039 4488 4569 37065 4596 4606 37091 4633 4683 37129 4722 4887 1 
#T 21 0 36132 36173 37155 36200 36274 37182 36302 36353 37208 36380 36428 37288 36509 36533 2 8 86 116 206 233 415 449 467 494 3215 3242 3258 3297 3409 3436 3507 3534 3714 3754 3801 3828 3846 3906 4164 4191 4258 4285 4452 4488 4569 4596 4606 4633 4683 4722 4887 5469 5472 5553 5559 5469 5472 5587 5553 5559 9543 1 
#T 96 0 39850 39851 40061 40088 40672 40699 40726 40834 40861 40912 40949 40996 41023 41033 41063 41066 41102 41174 41201 41252 41279 41351 41378 41402 41444 41460 41486 41530 41559 44822 44849 45076 45103 45106 45133 45402 45890 45912 45938 45965 46004 46056 46163 46190 46196 46223 46229 46256 46278 46305 46418 46445 46520 46547 46557 47283 1 
#T 46 0 57258 1 
#T 39 0 45402 45890 58040 58067 61195 61514 61551 61586 61596 61514 61551 61669 61586 61596 45912 45938 66075 45965 46004 66126 46056 46163 66152 46190 46196 66178 46223 46229 66204 46256 46278 66230 46305 46418 66256 46445 46520 66282 46547 46557 1 
#T 25 0 39851 40061 66308 40088 40672 66334 40699 66360 40726 40834 66386 40861 40912 66422 40949 40996 66448 41023 41033 66477 41063 41066 66512 41102 41174 66538 41201 41252 66564 41279 41351 66590 41378 41402 66631 41444 41460 66654 41486 41530 66682 41559 44822 66708 44849 45076 66734 45103 45106 66760 45133 45402 45890 58040 66786 58067 61195 1 
# subpath constraints, in the format 'node1 node2 node3 ... '
# 0 subpath constraints for genome
#S 5559 9543 
#S 494 3215 
#S 494 3215 
#S 494 3215 3242 3258 3297 3409 3436 3507 3534 3714 3754 3801 
#S 5559 9543 
# 1 subpath constraints for genome
#S 15428 16940 
#S 0 11616 11617 12069 12096 12191 12218 13676 
#S 16966 19940 
#S 16966 19940 
#S 16966 19940 
# 2 subpath constraints for genome
#S 0 1 
#S 0 1 
#S 0 1 
#S 0 1 
#S 0 1 
# 3 subpath constraints for genome
#S 16966 19940 
#S 12218 13676 29993 13703 15401 
#S 19940 31695 
#S 15428 16940 30043 16966 19940 
#S 19940 31695 
# 4 subpath constraints for genome
#S 494 3215 36699 3242 3258 36737 
#S 494 3215 
#S 0 32235 32268 32370 32391 32235 32268 32370 32431 32391 32235 32268 36132 
#S 494 3215 
#S 494 3215 
# 5 subpath constraints for genome
#S 494 3215 3242 3258 3297 3409 3436 
#S 4258 4285 4452 4488 4569 4596 4606 4633 4683 4722 4887 5469 
#S 5559 9543 
#S 36200 36274 37182 36302 36353 37208 36380 36428 37288 36509 36533 2 8 86 116 206 233 415 449 467 494 3215 
#S 5559 9543 
# 6 subpath constraints for genome
#S 41559 44822 
#S 45133 45402 45890 45912 45938 45965 46004 46056 46163 46190 46196 46223 46229 46256 46278 46305 
#S 41559 44822 44849 45076 45103 45106 45133 45402 45890 
#S 41559 44822 
#S 0 39850 
# 7 subpath constraints for genome
#S 0 57258 
#S 0 57258 
#S 0 57258 
#S 0 57258 
#S 0 57258 
# 8 subpath constraints for genome
#S 58067 61195 
#S 61596 45912 
#S 61596 45912 
#S 58067 61195 
#S 58067 61195 61514 
# 9 subpath constraints for genome
#S 41559 44822 
#S 58067 61195 
#S 41559 44822 
#S 58067 61195 
#S 45133 45402 45890 58040 
265
2 8 21
8 86 48
86 116 30
86 36588 15
116 206 46
206 233 27
206 36614 21
233 415 36
415 449 25
415 36647 11
449 467 54
467 494 27
467 36673 17
494 3215 32
3215 3242 32
3215 36699 21
3242 3258 44
3258 3297 23
3258 36737 17
3297 3409 41
3409 3436 22
3409 36763 15
3436 3507 42
3507 3534 22
3507 36789 17
3534 3714 54
3714 3754 31
3714 36828 9
3754 3801 34
3801 3828 20
3801 36854 11
3828 3846 43
3846 3906 29
3846 36913 20
3906 4164 44
4164 4191 23
4164 36939 12
4191 4258 49
4258 4285 24
4258 36965 18
4285 4452 43
4452 4488 33
4452 37039 14
4488 4569 38
4569 4596 27
4569 37065 11
4596 4606 30
4606 4633 26
4606 37091 13
4633 4683 48
4683 4722 28
4683 37129 10
4722 4887 47
4887 1 12
4887 5469 24
5469 5472 50
5472 5553 31
5472 5587 33
5553 5559 55
5559 5469 26
5559 9543 35
5587 5553 28
9543 1 23
9543 9965 8
9965 1 4
11616 11617 19
11617 12069 154
12069 12096 20
12069 29941 141
12096 12191 157
12191 12218 14
12191 29967 142
12218 13676 148
13676 13703 20
13676 29993 168
13703 15401 129
15401 15428 26
15401 30019 148
15428 16940 143
16940 16966 23
16940 30043 139
16966 19940 146
19940 1 13
19940 31695 135
29941 12096 135
29967 12218 144
29993 13703 145
30019 15428 147
30043 16966 145
31695 1 134
32235 32268 47
32268 32370 25
32268 36132 10
32370 32391 17
32370 32431 17
32391 32235 26
32431 32391 14
36132 36173 28
36173 36200 13
36173 37155 23
36200 36274 38
36274 36302 22
36274 37182 18
36302 36353 47
36353 36380 15
36353 37208 19
36380 36428 24
36428 36509 17
36428 37288 22
36509 36533 31
36533 8 15
36533 2 21
36588 116 10
36614 233 19
36647 449 11
36673 494 12
36699 3242 21
36737 3297 11
36763 3436 17
36789 3534 13
36828 3754 14
36854 3828 16
36913 3906 7
36939 4191 16
36965 4285 16
37039 4488 14
37065 4596 19
37091 4633 11
37129 4722 17
37155 36200 34
37182 36302 23
37208 36380 14
37288 36509 24
39850 39851 92
39851 40061 124
40061 40088 122
40061 66308 24
40088 40672 123
40672 40699 100
40672 66334 22
40699 40726 93
40699 66360 14
40726 40834 109
40834 40861 75
40834 66386 31
40861 40912 122
40912 40949 105
40912 66422 21
40949 40996 134
40996 41023 87
40996 66448 19
41023 41033 99
41033 41063 82
41033 66477 22
41063 41066 130
41066 41102 89
41066 66512 26
41102 41174 125
41174 41201 87
41174 66538 24
41201 41252 118
41252 41279 99
41252 66564 24
41279 41351 130
41351 41378 79
41351 66590 34
41378 41402 101
41402 41444 99
41402 66631 27
41444 41460 119
41460 41486 95
41460 66654 23
41486 41530 118
41530 41559 94
41530 66682 25
41559 44822 114
44822 44849 101
44822 66708 23
44849 45076 116
45076 45103 87
45076 66734 24
45103 45106 133
45106 45133 100
45106 66760 40
45133 45402 97
45402 45890 155
45890 45912 105
45890 58040 61
45912 45938 113
45938 45965 109
45938 66075 40
45965 46004 140
46004 46056 90
46004 66126 36
46056 46163 139
46163 46190 98
46163 66152 24
46190 46196 147
46196 46223 116
46196 66178 35
46223 46229 147
46229 46256 106
46229 66204 36
46256 46278 142
46278 46305 93
46278 66230 33
46305 46418 161
46418 46445 94
46418 66256 37
46445 46520 113
46520 46547 100
46520 66282 39
46547 46557 131
46557 1 36
46557 47283 100
47283 1 85
57258 1 52
58040 58067 30
58040 66786 25
58067 61195 57
61195 1 13
61195 61514 35
61514 61551 85
61551 61586 37
61551 61669 33
61586 61596 83
61596 61514 38
61596 45912 38
61669 61586 35
66075 45965 42
66126 46056 42
66152 46190 26
66178 46223 51
66204 46256 39
66230 46305 36
66256 46445 46
66282 46547 45
66308 40088 31
66334 40699 29
66360 40726 17
66386 40861 33
66422 40949 25
66448 41023 28
66477 41063 27
66512 41102 27
66538 41201 24
66564 41279 25
66590 41378 18
66631 41444 22
66654 41486 26
66682 41559 25
66708 44849 22
66734 45103 32
66760 45133 29
66786 58067 30
0 2 8
0 11617 138
0 36132 24
0 45402 38
0 39851 29
0 11616 9
0 1 27
0 32235 16
0 39850 92
0 57258 43