#gt10.kmer27.(3110000.3120000).V42.E73.mincyc22.e1.0
#construct-flow-graph.py -o graphs-g10-w10000-k27-cyc/ -g 10 -w 10000 -k 27 --mincycles 1 --nreads 5 --readlength 1000 --distribution lognormal11 --pdf
#kmersize=27
#windowsize=10000
#acyclic=False
#mincycles=1
#distribution=lognormal11
#ngenomes=10
#nreads=5
#readlength=1000
#outdir=graphs-g10-w10000-k27-cyc/
#pdf=True
#erroreps=1.0
#unique source is 0, unique sink is 1
#genomes: GCA_000005845.2_ASM584v2.fna GCA_000006665.1_ASM666v1.fna GCA_000007445.1_ASM744v1.fna GCA_000008865.2_ASM886v2.fna GCA_000009565.2_ASM956v1.fna GCA_000010245.1_ASM1024v1.fna GCA_000010385.1_ASM1038v1.fna GCA_000010485.1_ASM1048v1.fna GCA_000010745.1_ASM1074v1.fna GCA_000010765.1_ASM1076v1.fna 
# ground truth paths, in the format 'weight node1 node2 node3 ... '
#T 15 0 1345 1346 9976 1 
#T 76 0 1 
#T 57 0 29926 1 
#T 33 0 39901 1 
#T 6 0 49876 1 
#T 38 0 1346 9976 51220 1 
#T 8 0 56238 56239 56240 56243 56244 56245 56297 56299 56239 56240 56243 56300 56301 56302 56356 56240 56243 56357 56299 56239 56240 56243 56357 56412 56467 56240 56243 56468 56469 56523 56467 56240 56243 56468 56238 56239 56240 56243 56357 56412 56356 56240 56243 56244 56356 56240 56243 56357 56412 56688 56297 56299 56239 56240 56243 56468 56469 56790 56523 56467 56240 56243 56468 56791 56845 56239 56240 56243 56300 56301 56302 56897 56898 56899 56240 56243 56300 56900 56953 56299 56239 56240 56243 56357 56412 56688 56299 56239 56240 56243 56300 56897 56898 56899 56240 56243 56300 56301 56790 56523 56467 56240 56243 56468 56791 56467 56240 56243 56357 57164 56899 56240 56243 56468 56898 56899 56240 56243 56244 56845 56239 56240 56243 56300 56900 57378 56953 56299 56239 56240 56243 56357 57164 57432 56899 56240 56243 56244 56245 1 
#T 42 0 71015 1 
#T 19 0 80990 1 
#T 35 0 90965 1 
# subpath constraints, in the format 'node1 node2 node3 ... '
# 0 subpath constraints for genome
#S 1346 9976 
#S 1346 9976 
#S 1346 9976 
#S 0 1345 
#S 1346 9976 
# 1 subpath constraints for genome
#S 0 1 
#S 0 1 
#S 0 1 
#S 0 1 
#S 0 1 
# 2 subpath constraints for genome
#S 0 29926 
#S 0 29926 
#S 0 29926 
#S 0 29926 
#S 0 29926 
# 3 subpath constraints for genome
#S 0 39901 
#S 0 39901 
#S 0 39901 
#S 0 39901 
#S 0 39901 
# 4 subpath constraints for genome
#S 0 49876 
#S 0 49876 
#S 0 49876 
#S 0 49876 
#S 0 49876 
# 5 subpath constraints for genome
#S 1346 9976 
#S 1346 9976 51220 
#S 9976 51220 
#S 1346 9976 
#S 9976 51220 
# 6 subpath constraints for genome
#S 0 56238 
#S 56791 56467 56240 56243 56357 57164 56899 56240 56243 56468 56898 56899 56240 56243 56244 56845 56239 56240 56243 56300 56900 57378 56953 56299 56239 56240 56243 56357 57164 57432 56899 56240 56243 56244 56245 1 
#S 56245 1 
#S 56791 56467 56240 56243 56357 57164 56899 56240 56243 56468 56898 56899 56240 56243 56244 56845 56239 56240 56243 56300 56900 57378 56953 56299 56239 56240 56243 56357 57164 57432 56899 56240 56243 56244 56245 1 
#S 56469 56523 56467 56240 56243 56468 56238 56239 56240 56243 56357 56412 56356 56240 56243 56244 56356 56240 56243 56357 56412 56688 56297 56299 56239 56240 56243 56468 56469 56790 56523 56467 56240 56243 56468 56791 56845 56239 56240 56243 56300 56301 56302 56897 56898 56899 56240 56243 56300 56900 56953 56299 56239 56240 56243 56357 56412 56688 56299 56239 56240 56243 56300 56897 56898 56899 56240 56243 56300 56301 56790 56523 56467 56240 56243 56468 56791 56467 56240 56243 56357 57164 56899 56240 56243 56468 56898 56899 56240 56243 56244 56845 56239 56240 56243 56300 56900 57378 56953 56299 56239 56240 56243 
# 7 subpath constraints for genome
#S 0 71015 
#S 0 71015 
#S 0 71015 
#S 0 71015 
#S 0 71015 
# 8 subpath constraints for genome
#S 0 80990 
#S 0 80990 
#S 0 80990 
#S 0 80990 
#S 0 80990 
# 9 subpath constraints for genome
#S 0 90965 
#S 0 90965 
#S 0 90965 
#S 0 90965 
#S 0 90965 
73
1345 1346 15
1346 9976 57
9976 1 16
9976 51220 28
29926 1 51
39901 1 27
49876 1 4
51220 1 42
56238 56239 18
56239 56240 95
56240 56243 234
56243 56244 40
56243 56300 45
56243 56357 73
56243 56468 44
56244 56245 13
56244 56356 5
56244 56845 7
56245 56297 8
56245 1 6
56297 56299 17
56299 56239 62
56300 56301 27
56300 56900 14
56300 56897 5
56301 56302 14
56301 56790 5
56302 56356 10
56302 56897 10
56356 56240 26
56357 56412 34
56357 57164 11
56357 56299 11
56412 56467 10
56412 56356 4
56412 56688 17
56467 56240 42
56468 56469 20
56468 56791 28
56468 56238 9
56468 56898 13
56469 56523 8
56469 56790 6
56523 56467 17
56688 56297 10
56688 56299 10
56790 56523 21
56791 56845 4
56791 56467 5
56845 56239 26
56897 56898 15
56898 56899 19
56899 56240 42
56900 56953 8
56900 57378 5
56953 56299 16
57164 56899 10
57164 57432 11
57378 56953 10
57432 56899 12
71015 1 42
80990 1 9
90965 1 27
0 1346 41
0 1345 12
0 1 66
0 29926 44
0 39901 30
0 49876 7
0 56238 10
0 71015 34
0 80990 17
0 90965 40