#gt10.kmer27.(2300000.2310000).V59.E91.mincyc28.e1.0
#construct-flow-graph.py -o graphs-g10-w10000-k27-cyc/ -g 10 -w 10000 -k 27 --mincycles 1 --nreads 5 --readlength 1000 --distribution lognormal11 --pdf
#kmersize=27
#windowsize=10000
#acyclic=False
#mincycles=1
#distribution=lognormal11
#ngenomes=10
#nreads=5
#readlength=1000
#outdir=graphs-g10-w10000-k27-cyc/
#pdf=True
#erroreps=1.0
#unique source is 0, unique sink is 1
#genomes: GCA_000005845.2_ASM584v2.fna GCA_000006665.1_ASM666v1.fna GCA_000007445.1_ASM744v1.fna GCA_000008865.2_ASM886v2.fna GCA_000009565.2_ASM956v1.fna GCA_000010245.1_ASM1024v1.fna GCA_000010385.1_ASM1038v1.fna GCA_000010485.1_ASM1048v1.fna GCA_000010745.1_ASM1074v1.fna GCA_000010765.1_ASM1076v1.fna 
# ground truth paths, in the format 'weight node1 node2 node3 ... '
#T 20 0 2 4401 4456 4461 4464 4476 4497 4401 4456 4461 4464 4476 4497 4527 4554 4558 4464 4476 4497 4527 4617 4554 4558 4461 4464 4476 4497 4527 4554 4558 4464 4476 4497 4527 4617 4456 4461 4464 4476 6282 9616 1 
#T 71 0 11577 11586 11613 11625 11661 11688 11702 11721 11613 11625 11661 11800 11688 11702 11721 11577 11586 11625 11661 11800 11688 11702 18657 18674 18701 18703 1 
#T 17 0 1 
#T 46 0 37765 37783 37810 37822 37849 37873 37882 37885 37888 37895 37810 37822 37913 37923 37765 37783 37882 37885 37888 37895 37913 37923 37976 37849 37873 37882 37885 37888 37895 37913 37923 37976 37888 38056 38059 37873 37882 37885 38056 38059 1 
#T 69 0 49181 1 
#T 134 0 52515 2 4401 4456 4461 4464 4476 4497 4401 4456 4461 4464 4476 4497 4527 4554 4558 4464 4476 4497 4527 4617 4554 4558 4461 4464 4476 4497 4527 4554 4558 4464 4476 4497 4527 4617 4456 4461 4464 4476 6282 1 
#T 45 0 62490 1 
#T 41 0 66753 66777 66813 66824 66825 66826 66877 66888 66753 66777 67066 66813 66824 66825 66824 66825 66826 67090 66877 66888 1 
#T 24 0 18657 18674 81669 18701 18703 82366 1 
#T 17 0 92341 1 
# subpath constraints, in the format 'node1 node2 node3 ... '
# 0 subpath constraints for genome
#S 2 4401 
#S 2 4401 
#S 6282 9616 
#S 4476 6282 
#S 4476 6282 9616 
# 1 subpath constraints for genome
#S 11702 18657 18674 18701 18703 1 
#S 11702 18657 
#S 11702 18657 
#S 11702 18657 
#S 0 11577 
# 2 subpath constraints for genome
#S 0 1 
#S 0 1 
#S 0 1 
#S 0 1 
#S 0 1 
# 3 subpath constraints for genome
#S 0 37765 
#S 0 37765 37783 37810 37822 37849 37873 37882 37885 37888 37895 37810 37822 37913 37923 37765 37783 37882 37885 37888 37895 37913 37923 37976 37849 37873 37882 37885 37888 37895 37913 37923 37976 37888 38056 38059 37873 
#S 0 37765 
#S 0 37765 
#S 0 37765 
# 4 subpath constraints for genome
#S 0 49181 
#S 0 49181 
#S 0 49181 
#S 0 49181 
#S 0 49181 
# 5 subpath constraints for genome
#S 4558 4464 4476 4497 4527 4617 4456 4461 4464 4476 6282 
#S 0 52515 
#S 2 4401 
#S 4476 6282 
#S 2 4401 
# 6 subpath constraints for genome
#S 0 62490 
#S 0 62490 
#S 0 62490 
#S 0 62490 
#S 0 62490 
# 7 subpath constraints for genome
#S 66888 1 
#S 66888 1 
#S 66888 1 
#S 0 66753 
#S 0 66753 
# 8 subpath constraints for genome
#S 0 18657 
#S 0 18657 
#S 0 18657 
#S 0 18657 18674 81669 18701 18703 82366 
#S 0 18657 18674 81669 18701 18703 82366 
# 9 subpath constraints for genome
#S 0 92341 
#S 0 92341 
#S 0 92341 
#S 0 92341 
#S 0 92341 
91
2 4401 157
4401 4456 298
4456 4461 473
4461 4464 676
4464 4476 932
4476 4497 765
4476 6282 157
4497 4401 143
4497 4527 689
4527 4554 302
4527 4617 314
4554 4558 481
4558 4464 323
4558 4461 187
4617 4554 170
4617 4456 170
6282 1 131
6282 9616 21
9616 1 15
11577 11586 150
11586 11613 65
11586 11625 80
11613 11625 159
11625 11661 204
11661 11688 75
11661 11800 142
11688 11702 205
11702 11721 138
11702 18657 60
11721 11613 64
11721 11577 62
11800 11688 139
18657 18674 103
18674 18701 83
18674 81669 21
18701 18703 87
18703 1 79
18703 82366 26
37765 37783 104
37783 37810 54
37783 37882 52
37810 37822 88
37822 37849 42
37822 37913 35
37849 37873 88
37873 37882 146
37882 37885 193
37885 37888 128
37885 38056 49
37888 37895 142
37888 38056 46
37895 37810 51
37895 37913 81
37913 37923 157
37923 37976 90
37923 37765 45
37976 37849 36
37976 37888 38
38056 38059 95
38059 37873 42
38059 1 56
49181 1 66
52515 2 139
62490 1 50
66753 66777 84
66777 66813 35
66777 67066 35
66813 66824 79
66824 66825 124
66825 66826 93
66825 66824 42
66826 66877 39
66826 67090 52
66877 66888 75
66888 66753 41
66888 1 35
67066 66813 41
67090 66877 29
81669 18701 19
82366 1 25
92341 1 13
0 2 20
0 11577 60
0 1 19
0 37765 37
0 49181 70
0 52515 138
0 62490 44
0 66753 44
0 18657 16
0 92341 14