#gt10.kmer27.(2920000.2930000).V48.E70.mincyc2.e1.0
#construct-flow-graph.py -o graphs-g10-w10000-k27-cyc/ -g 10 -w 10000 -k 27 --mincycles 1 --nreads 5 --readlength 1000 --distribution lognormal11 --pdf
#kmersize=27
#windowsize=10000
#acyclic=False
#mincycles=1
#distribution=lognormal11
#ngenomes=10
#nreads=5
#readlength=1000
#outdir=graphs-g10-w10000-k27-cyc/
#pdf=True
#erroreps=1.0
#unique source is 0, unique sink is 1
#genomes: GCA_000005845.2_ASM584v2.fna GCA_000006665.1_ASM666v1.fna GCA_000007445.1_ASM744v1.fna GCA_000008865.2_ASM886v2.fna GCA_000009565.2_ASM956v1.fna GCA_000010245.1_ASM1024v1.fna GCA_000010385.1_ASM1038v1.fna GCA_000010485.1_ASM1048v1.fna GCA_000010745.1_ASM1074v1.fna GCA_000010765.1_ASM1076v1.fna 
# ground truth paths, in the format 'weight node1 node2 node3 ... '
#T 8 0 1345 1346 9976 1 
#T 23 0 1 
#T 110 0 29092 29146 29188 29197 29224 29227 29254 29272 29299 29326 29365 29443 29470 29524 29551 29716 29750 29783 29810 29887 29917 29926 1 
#T 11 0 39901 1 
#T 104 0 49876 1 
#T 30 0 1346 9976 51220 1 
#T 22 0 51240 29092 29146 51281 29188 29197 51307 29224 29227 51333 29254 29272 51359 29299 29326 51397 29365 29443 51423 29470 29524 51449 29551 29716 51482 29750 29783 51508 29810 29887 51537 29917 29926 60657 1 
#T 24 0 70632 1 
#T 108 0 70683 70696 70683 70696 73131 73132 73131 73132 73131 73132 73131 73132 1 
#T 4 0 90548 1 
# subpath constraints, in the format 'node1 node2 node3 ... '
# 0 subpath constraints for genome
#S 0 1345 1346 9976 
#S 1346 9976 
#S 1346 9976 
#S 1346 9976 
#S 1346 9976 
# 1 subpath constraints for genome
#S 0 1 
#S 0 1 
#S 0 1 
#S 0 1 
#S 0 1 
# 2 subpath constraints for genome
#S 0 29092 
#S 0 29092 29146 29188 29197 29224 29227 29254 29272 29299 29326 29365 29443 29470 29524 29551 
#S 29092 29146 29188 29197 29224 29227 29254 29272 29299 29326 29365 29443 29470 29524 29551 29716 29750 29783 29810 29887 29917 29926 
#S 0 29092 29146 29188 29197 29224 29227 29254 29272 29299 29326 29365 29443 29470 29524 
#S 0 29092 
# 3 subpath constraints for genome
#S 0 39901 
#S 0 39901 
#S 0 39901 
#S 0 39901 
#S 0 39901 
# 4 subpath constraints for genome
#S 0 49876 
#S 0 49876 
#S 0 49876 
#S 0 49876 
#S 0 49876 
# 5 subpath constraints for genome
#S 9976 51220 
#S 1346 9976 
#S 1346 9976 
#S 9976 51220 
#S 1346 9976 
# 6 subpath constraints for genome
#S 29926 60657 
#S 29926 60657 
#S 29783 51508 29810 29887 51537 29917 29926 60657 
#S 29926 60657 
#S 29926 60657 
# 7 subpath constraints for genome
#S 0 70632 
#S 0 70632 
#S 0 70632 
#S 0 70632 
#S 0 70632 
# 8 subpath constraints for genome
#S 73132 1 
#S 73132 1 
#S 73132 1 
#S 73132 1 
#S 70696 70683 70696 73131 
# 9 subpath constraints for genome
#S 0 90548 
#S 0 90548 
#S 0 90548 
#S 0 90548 
#S 0 90548 
70
1345 1346 9
1346 9976 45
9976 1 7
9976 51220 37
29092 29146 139
29146 29188 103
29146 51281 19
29188 29197 137
29197 29224 98
29197 51307 23
29224 29227 135
29227 29254 100
29227 51333 25
29254 29272 138
29272 29299 106
29272 51359 20
29299 29326 143
29326 29365 107
29326 51397 30
29365 29443 137
29443 29470 111
29443 51423 24
29470 29524 133
29524 29551 87
29524 51449 15
29551 29716 124
29716 29750 107
29716 51482 18
29750 29783 128
29783 29810 95
29783 51508 25
29810 29887 127
29887 29917 100
29887 51537 25
29917 29926 130
29926 1 100
29926 60657 24
39901 1 8
49876 1 108
51220 1 26
51240 29092 28
51281 29188 29
51307 29224 23
51333 29254 21
51359 29299 22
51397 29365 25
51423 29470 22
51449 29551 21
51482 29750 28
51508 29810 24
51537 29917 28
60657 1 24
70632 1 19
70683 70696 224
70696 70683 97
70696 73131 112
73131 73132 433
73132 73131 304
73132 1 116
90548 1 8
0 1346 29
0 1345 11
0 1 11
0 29092 99
0 39901 8
0 49876 79
0 51240 13
0 70632 25
0 70683 79
0 90548 5