#gt10.kmer27.(300000.310000).V170.E235.mincyc6.e1.0
#construct-flow-graph.py -o graphs-g10-w10000-k27-cyc/ -g 10 -w 10000 -k 27 --mincycles 1 --nreads 5 --readlength 1000 --distribution lognormal11 --pdf
#kmersize=27
#windowsize=10000
#acyclic=False
#mincycles=1
#distribution=lognormal11
#ngenomes=10
#nreads=5
#readlength=1000
#outdir=graphs-g10-w10000-k27-cyc/
#pdf=True
#erroreps=1.0
#unique source is 0, unique sink is 1
#genomes: GCA_000005845.2_ASM584v2.fna GCA_000006665.1_ASM666v1.fna GCA_000007445.1_ASM744v1.fna GCA_000008865.2_ASM886v2.fna GCA_000009565.2_ASM956v1.fna GCA_000010245.1_ASM1024v1.fna GCA_000010385.1_ASM1038v1.fna GCA_000010485.1_ASM1048v1.fna GCA_000010745.1_ASM1074v1.fna GCA_000010765.1_ASM1076v1.fna 
# ground truth paths, in the format 'weight node1 node2 node3 ... '
#T 15 0 777 778 2979 3067 3091 3656 3683 3906 3933 4065 4092 4542 4569 4633 4660 4777 4830 4866 4893 4914 4941 5117 5144 5185 5212 5331 5380 5419 5446 5860 5887 6294 6321 6575 6602 6724 6802 6851 6878 6890 6917 6947 6980 7052 7079 7122 7149 7379 7409 7451 7493 7508 7535 7541 7583 7658 7685 7729 7756 7916 7943 7965 7998 8024 8051 8275 8302 8773 8804 8852 8879 8906 8966 8993 9061 9094 9134 9185 9393 9420 9462 9516 9558 9597 9702 9729 9797 9824 9852 9879 9966 9976 1 
#T 13 0 13767 13774 13767 13774 14923 16779 1 
#T 12 0 1 
#T 11 0 13767 13774 13767 13774 14923 31773 16779 1 
#T 34 0 41151 41162 41196 41202 41207 41211 41151 41162 41196 41202 41207 41211 41293 41300 41196 41202 41207 41211 41151 41162 41293 41300 41202 41207 1 
#T 109 0 778 2979 3067 3091 3656 3683 3906 3933 4065 4092 4542 4569 4633 4660 4777 4830 4866 4893 4914 4941 5117 5144 5185 5212 5331 5380 5419 5446 5860 5887 6294 6321 6575 6602 6724 6802 6851 6878 6890 6917 6947 6980 7052 7079 7122 7149 7379 7409 7451 7493 7508 7535 7541 7583 7658 7685 7729 7756 7916 7943 7965 7998 8024 8051 8275 8302 8773 8804 8852 8879 8906 8966 8993 9061 9094 9134 9185 9393 9420 9462 9516 9558 9597 9702 9729 9797 9824 9852 9879 9966 9976 41646 41670 41690 41771 41798 41843 41975 42002 42029 42389 1 
#T 19 0 52364 1 
#T 10 0 62339 1 
#T 46 0 2979 3067 62360 3091 3656 62386 3683 3906 62412 3933 4065 62438 4092 4542 62464 4569 4633 62490 4660 4777 62542 4830 4866 62568 4893 4914 62594 4941 5117 62620 5144 5185 62646 5212 5331 62694 5380 5419 62720 5446 5860 62746 5887 6294 62772 6321 6575 62798 6602 6724 62875 6802 6851 62901 6878 6890 62927 6917 6947 62959 6980 7052 62985 7079 7122 63011 7149 7379 63040 7409 7451 63081 7493 7508 63107 7535 7541 63148 7583 7658 63174 7685 7729 63200 7756 7916 63226 7943 7965 63258 7998 8024 63284 8051 8275 63310 8302 8773 63340 8804 8852 63366 8879 63392 8906 8966 63418 8993 9061 63450 9094 9134 63500 9185 9393 63526 9420 9462 63579 9516 9558 63617 9597 9702 63643 9729 9797 63669 9824 9852 63695 9879 9966 41646 41670 63759 41690 41771 63785 41798 63829 41843 41975 63855 42002 63881 42029 42389 66081 1 
#T 5 0 76056 1 
# subpath constraints, in the format 'node1 node2 node3 ... '
# 0 subpath constraints for genome
#S 4065 4092 4542 4569 4633 4660 4777 4830 4866 4893 4914 4941 5117 
#S 0 777 778 2979 
#S 778 2979 
#S 778 2979 
#S 8302 8773 8804 8852 8879 8906 8966 8993 9061 9094 9134 9185 9393 
# 1 subpath constraints for genome
#S 13774 14923 
#S 16779 1 
#S 13774 14923 16779 
#S 16779 1 
#S 16779 1 
# 2 subpath constraints for genome
#S 0 1 
#S 0 1 
#S 0 1 
#S 0 1 
#S 0 1 
# 3 subpath constraints for genome
#S 13774 14923 31773 
#S 0 13767 
#S 16779 1 
#S 0 13767 
#S 16779 1 
# 4 subpath constraints for genome
#S 0 41151 
#S 0 41151 
#S 0 41151 
#S 0 41151 41162 41196 41202 41207 41211 41151 41162 41196 41202 41207 41211 41293 41300 41196 41202 41207 41211 41151 41162 41293 41300 41202 41207 1 
#S 0 41151 
# 5 subpath constraints for genome
#S 778 2979 
#S 42029 42389 
#S 8966 8993 9061 9094 9134 9185 9393 9420 9462 9516 9558 9597 9702 9729 9797 9824 9852 9879 9966 9976 
#S 778 2979 3067 3091 3656 
#S 778 2979 
# 6 subpath constraints for genome
#S 0 52364 
#S 0 52364 
#S 0 52364 
#S 0 52364 
#S 0 52364 
# 7 subpath constraints for genome
#S 0 62339 
#S 0 62339 
#S 0 62339 
#S 0 62339 
#S 0 62339 
# 8 subpath constraints for genome
#S 3091 3656 62386 3683 3906 62412 3933 4065 62438 4092 4542 62464 
#S 6851 62901 6878 6890 62927 6917 6947 62959 6980 7052 62985 7079 7122 63011 7149 7379 63040 7409 7451 63081 7493 7508 63107 7535 7541 63148 7583 7658 63174 7685 7729 63200 7756 7916 
#S 8804 8852 63366 8879 63392 8906 8966 63418 8993 9061 63450 9094 9134 63500 9185 9393 63526 9420 9462 63579 9516 9558 63617 9597 9702 63643 9729 9797 63669 9824 9852 
#S 3091 3656 62386 3683 3906 62412 3933 4065 62438 4092 4542 
#S 7756 7916 63226 7943 7965 63258 7998 8024 63284 8051 8275 63310 8302 8773 63340 
# 9 subpath constraints for genome
#S 0 76056 
#S 0 76056 
#S 0 76056 
#S 0 76056 
#S 0 76056 
235
777 778 13
778 2979 123
2979 3067 140
3067 3091 121
3067 62360 40
3091 3656 165
3656 3683 108
3656 62386 47
3683 3906 208
3906 3933 122
3906 62412 45
3933 4065 157
4065 4092 127
4065 62438 39
4092 4542 156
4542 4569 106
4542 62464 47
4569 4633 147
4633 4660 121
4633 62490 56
4660 4777 178
4777 4830 120
4777 62542 47
4830 4866 194
4866 4893 144
4866 62568 43
4893 4914 167
4914 4941 116
4914 62594 46
4941 5117 177
5117 5144 127
5117 62620 47
5144 5185 173
5185 5212 110
5185 62646 63
5212 5331 171
5331 5380 120
5331 62694 41
5380 5419 170
5419 5446 130
5419 62720 50
5446 5860 168
5860 5887 118
5860 62746 48
5887 6294 162
6294 6321 120
6294 62772 40
6321 6575 151
6575 6602 129
6575 62798 63
6602 6724 179
6724 6802 135
6724 62875 61
6802 6851 166
6851 6878 130
6851 62901 56
6878 6890 194
6890 6917 123
6890 62927 48
6917 6947 171
6947 6980 111
6947 62959 52
6980 7052 153
7052 7079 122
7052 62985 44
7079 7122 170
7122 7149 147
7122 63011 44
7149 7379 171
7379 7409 123
7379 63040 46
7409 7451 195
7451 7493 129
7451 63081 32
7493 7508 167
7508 7535 116
7508 63107 37
7535 7541 167
7541 7583 120
7541 63148 43
7583 7658 164
7658 7685 124
7658 63174 39
7685 7729 147
7729 7756 125
7729 63200 54
7756 7916 153
7916 7943 134
7916 63226 41
7943 7965 170
7965 7998 128
7965 63258 37
7998 8024 174
8024 8051 131
8024 63284 37
8051 8275 166
8275 8302 116
8275 63310 39
8302 8773 169
8773 8804 121
8773 63340 35
8804 8852 174
8852 8879 142
8852 63366 40
8879 8906 119
8879 63392 54
8906 8966 185
8966 8993 118
8966 63418 46
8993 9061 158
9061 9094 123
9061 63450 30
9094 9134 167
9134 9185 138
9134 63500 55
9185 9393 169
9393 9420 132
9393 63526 48
9420 9462 196
9462 9516 143
9462 63579 33
9516 9558 194
9558 9597 120
9558 63617 47
9597 9702 171
9702 9729 120
9702 63643 45
9729 9797 154
9797 9824 116
9797 63669 54
9824 9852 155
9852 9879 129
9852 63695 46
9879 9966 149
9966 9976 128
9966 41646 39
9976 1 18
9976 41646 92
13767 13774 49
13774 13767 35
13774 14923 23
14923 16779 12
14923 31773 6
16779 1 22
31773 16779 12
41151 41162 91
41162 41196 71
41162 41293 27
41196 41202 110
41202 41207 125
41207 41211 78
41207 1 37
41211 41151 60
41211 41293 29
41293 41300 47
41300 41196 35
41300 41202 46
41646 41670 144
41670 41690 115
41670 63759 55
41690 41771 169
41771 41798 98
41771 63785 43
41798 41843 109
41798 63829 33
41843 41975 152
41975 42002 109
41975 63855 36
42002 42029 92
42002 63881 50
42029 42389 166
42389 1 114
42389 66081 49
52364 1 24
62339 1 10
62360 3091 47
62386 3683 40
62412 3933 49
62438 4092 54
62464 4569 55
62490 4660 48
62542 4830 37
62568 4893 50
62594 4941 37
62620 5144 48
62646 5212 49
62694 5380 52
62720 5446 49
62746 5887 53
62772 6321 48
62798 6602 51
62875 6802 50
62901 6878 52
62927 6917 40
62959 6980 39
62985 7079 33
63011 7149 38
63040 7409 50
63081 7493 57
63107 7535 37
63148 7583 56
63174 7685 41
63200 7756 41
63226 7943 40
63258 7998 39
63284 8051 39
63310 8302 51
63340 8804 58
63366 8879 70
63392 8906 45
63418 8993 52
63450 9094 41
63500 9185 44
63526 9420 46
63579 9516 46
63617 9597 42
63643 9729 45
63669 9824 48
63695 9879 37
63759 41690 39
63785 41798 45
63829 41843 40
63855 42002 47
63881 42029 52
66081 1 56
76056 1 4
0 778 111
0 2979 50
0 777 16
0 13767 25
0 1 9
0 41151 39
0 52364 11
0 62339 8
0 76056 10