#gt10.kmer27.(900000.910000).V166.E230.mincyc2.e1.0
#construct-flow-graph.py -o graphs-g10-w10000-k27-cyc/ -g 10 -w 10000 -k 27 --mincycles 1 --nreads 5 --readlength 1000 --distribution lognormal11 --pdf
#kmersize=27
#windowsize=10000
#acyclic=False
#mincycles=1
#distribution=lognormal11
#ngenomes=10
#nreads=5
#readlength=1000
#outdir=graphs-g10-w10000-k27-cyc/
#pdf=True
#erroreps=1.0
#unique source is 0, unique sink is 1
#genomes: GCA_000005845.2_ASM584v2.fna GCA_000006665.1_ASM666v1.fna GCA_000007445.1_ASM744v1.fna GCA_000008865.2_ASM886v2.fna GCA_000009565.2_ASM956v1.fna GCA_000010245.1_ASM1024v1.fna GCA_000010385.1_ASM1038v1.fna GCA_000010485.1_ASM1048v1.fna GCA_000010745.1_ASM1074v1.fna GCA_000010765.1_ASM1076v1.fna 
# ground truth paths, in the format 'weight node1 node2 node3 ... '
#T 31 0 2 20 95 140 146 176 263 305 326 353 455 482 4897 4924 5278 9554 9976 1 
#T 4 0 11622 11623 11654 11680 13523 13554 14319 14346 15056 15083 19951 1 
#T 13 0 1 
#T 22 0 11623 11654 29950 11680 13523 29980 13554 14319 30006 14346 15056 30032 15083 19951 31679 1 
#T 75 0 35981 36007 36034 36201 36258 36282 36309 36315 20 95 36439 140 146 36468 176 263 36509 305 326 36535 353 455 36561 482 4897 36587 4924 5278 1 
#T 266 0 36612 35981 36007 36638 36034 36201 36694 36258 36282 36720 36309 36315 2 20 95 140 146 176 263 305 326 353 455 482 4897 4924 5278 9554 1 
#T 24 0 38650 38860 38887 39182 39209 39259 39293 39380 40417 40421 40544 40585 40612 40618 40645 41647 41674 42013 42040 42852 42879 43185 43212 44696 44723 44885 46671 46700 46737 46746 1 
#T 53 0 51359 51374 51382 51374 51382 51359 1 
#T 19 0 44885 46671 46700 46737 46746 56770 56831 56948 56984 57107 57131 57176 57245 57275 57299 57326 57338 57386 57389 57455 57485 57512 57536 57620 57644 57671 58457 58484 58656 58692 58746 58779 58806 58833 58854 58910 58935 58962 59007 59034 59043 59070 59072 59100 59121 59148 59184 59238 59283 1 
#T 13 0 64861 38650 38860 64887 38887 39182 64913 39209 39259 64946 39293 39380 65268 40417 40421 65390 40544 40585 65416 40612 40618 65442 40645 41647 65468 41674 42013 65494 42040 42852 65520 42879 43185 65546 43212 44696 65572 44723 44885 46671 65600 46700 46737 56770 56831 65772 56948 56984 65894 57107 57131 65938 57176 57245 65967 57275 57299 65993 57326 57338 66040 57386 57389 66105 57455 57485 66131 57512 57536 66214 57620 57644 66240 57671 58457 66266 58484 58656 66301 58692 58746 66333 58779 58806 66359 58833 58854 66414 58910 58935 66440 58962 59007 66466 59034 59043 66492 59070 59072 66519 59100 59121 66545 59148 59184 66598 59238 59283 66603 1 
# subpath constraints, in the format 'node1 node2 node3 ... '
# 0 subpath constraints for genome
#S 5278 9554 
#S 5278 9554 
#S 482 4897 
#S 5278 9554 
#S 482 4897 
# 1 subpath constraints for genome
#S 0 11622 11623 11654 11680 13523 
#S 15083 19951 
#S 11654 11680 13523 
#S 15083 19951 
#S 14346 15056 15083 19951 
# 2 subpath constraints for genome
#S 0 1 
#S 0 1 
#S 0 1 
#S 0 1 
#S 0 1 
# 3 subpath constraints for genome
#S 13554 14319 30006 14346 15056 
#S 19951 31679 
#S 19951 31679 
#S 11680 13523 29980 13554 14319 30006 14346 15056 
#S 11680 13523 
# 4 subpath constraints for genome
#S 0 35981 36007 36034 36201 36258 36282 36309 36315 20 95 36439 140 146 36468 
#S 0 35981 36007 36034 36201 
#S 0 35981 36007 36034 36201 36258 36282 36309 36315 20 
#S 0 35981 
#S 482 4897 
# 5 subpath constraints for genome
#S 5278 9554 
#S 482 4897 
#S 482 4897 
#S 455 482 4897 
#S 5278 9554 
# 6 subpath constraints for genome
#S 0 38650 
#S 43212 44696 44723 
#S 0 38650 38860 
#S 44885 46671 
#S 40585 40612 40618 40645 41647 
# 7 subpath constraints for genome
#S 0 51359 
#S 51359 1 
#S 51359 1 
#S 0 51359 
#S 0 51359 
# 8 subpath constraints for genome
#S 59283 1 
#S 58779 58806 58833 58854 58910 58935 58962 59007 59034 59043 59070 59072 59100 59121 59148 59184 59238 59283 1 
#S 59283 1 
#S 59283 1 
#S 44885 46671 46700 46737 46746 56770 
# 9 subpath constraints for genome
#S 43212 44696 
#S 58935 66440 58962 59007 66466 59034 59043 66492 59070 59072 66519 59100 59121 66545 59148 59184 66598 59238 59283 66603 
#S 59148 59184 66598 59238 59283 66603 
#S 57620 57644 66240 57671 58457 66266 58484 58656 
#S 42040 42852 65520 42879 43185 65546 43212 44696 
230
2 20 276
20 95 375
95 140 281
95 36439 78
140 146 378
146 176 276
146 36468 76
176 263 377
263 305 322
263 36509 91
305 326 373
326 353 283
326 36535 73
353 455 336
455 482 326
455 36561 81
482 4897 340
4897 4924 285
4897 36587 74
4924 5278 340
5278 1 81
5278 9554 326
9554 1 229
9554 9976 30
9976 1 18
11622 11623 3
11623 11654 21
11654 11680 2
11654 29950 25
11680 13523 30
13523 13554 7
13523 29980 26
13554 14319 26
14319 14346 6
14319 30006 16
14346 15056 34
15056 15083 3
15056 30032 24
15083 19951 31
19951 1 8
19951 31679 22
29950 11680 28
29980 13554 18
30006 14346 18
30032 15083 28
31679 1 27
35981 36007 327
36007 36034 71
36007 36638 250
36034 36201 293
36201 36258 77
36201 36694 240
36258 36282 321
36282 36309 80
36282 36720 268
36309 36315 341
36315 20 62
36315 2 268
36439 140 88
36468 176 71
36509 305 69
36535 353 90
36561 482 64
36587 4924 76
36612 35981 262
36638 36034 262
36694 36258 265
36720 36309 272
38650 38860 39
38860 38887 27
38860 64887 15
38887 39182 44
39182 39209 32
39182 64913 9
39209 39259 40
39259 39293 20
39259 64946 20
39293 39380 34
39380 40417 21
39380 65268 9
40417 40421 42
40421 40544 25
40421 65390 18
40544 40585 43
40585 40612 27
40585 65416 14
40612 40618 38
40618 40645 17
40618 65442 11
40645 41647 42
41647 41674 30
41647 65468 11
41674 42013 47
42013 42040 21
42013 65494 16
42040 42852 41
42852 42879 21
42852 65520 12
42879 43185 46
43185 43212 15
43185 65546 12
43212 44696 32
44696 44723 27
44696 65572 17
44723 44885 43
44885 46671 44
46671 46700 39
46671 65600 10
46700 46737 68
46737 46746 42
46737 56770 13
46746 1 32
46746 56770 18
51359 51374 58
51359 1 58
51374 51382 110
51382 51374 71
51382 51359 45
56770 56831 32
56831 56948 23
56831 65772 11
56948 56984 37
56984 57107 19
56984 65894 9
57107 57131 27
57131 57176 14
57131 65938 6
57176 57245 37
57245 57275 20
57245 65967 13
57275 57299 32
57299 57326 23
57299 65993 13
57326 57338 28
57338 57386 19
57338 66040 9
57386 57389 42
57389 57455 18
57389 66105 14
57455 57485 36
57485 57512 21
57485 66131 12
57512 57536 39
57536 57620 17
57536 66214 6
57620 57644 31
57644 57671 25
57644 66240 14
57671 58457 34
58457 58484 29
58457 66266 9
58484 58656 31
58656 58692 23
58656 66301 11
58692 58746 25
58746 58779 17
58746 66333 14
58779 58806 37
58806 58833 16
58806 66359 13
58833 58854 34
58854 58910 19
58854 66414 18
58910 58935 27
58935 58962 16
58935 66440 19
58962 59007 44
59007 59034 17
59007 66466 17
59034 59043 31
59043 59070 24
59043 66492 17
59070 59072 35
59072 59100 18
59072 66519 15
59100 59121 25
59121 59148 22
59121 66545 21
59148 59184 33
59184 59238 21
59184 66598 16
59238 59283 34
59283 1 17
59283 66603 13
64861 38650 18
64887 38887 14
64913 39209 10
64946 39293 12
65268 40417 13
65390 40544 8
65416 40612 8
65442 40645 14
65468 41674 10
65494 42040 15
65520 42879 21
65546 43212 9
65572 44723 16
65600 46700 17
65772 56948 11
65894 57107 12
65938 57176 12
65967 57275 10
65993 57326 16
66040 57386 11
66105 57455 18
66131 57512 9
66214 57620 17
66240 57671 10
66266 58484 18
66301 58692 14
66333 58779 10
66359 58833 18
66414 58910 17
66440 58962 21
66466 59034 15
66492 59070 6
66519 59100 11
66545 59148 22
66598 59238 7
66603 1 17
0 2 28
0 11623 19
0 44885 21
0 11622 7
0 1 14
0 35981 90
0 36612 274
0 38650 30
0 51359 57
0 64861 12