#gt10.kmer27.(1870000.1880000).V192.E262.mincyc1.e1.0
#construct-flow-graph.py -o graphs-g10-w10000-k27-cyc/ -g 10 -w 10000 -k 27 --mincycles 1 --nreads 5 --readlength 1000 --distribution lognormal11 --pdf
#kmersize=27
#windowsize=10000
#acyclic=False
#mincycles=1
#distribution=lognormal11
#ngenomes=10
#nreads=5
#readlength=1000
#outdir=graphs-g10-w10000-k27-cyc/
#pdf=True
#erroreps=1.0
#unique source is 0, unique sink is 1
#genomes: GCA_000005845.2_ASM584v2.fna GCA_000006665.1_ASM666v1.fna GCA_000007445.1_ASM744v1.fna GCA_000008865.2_ASM886v2.fna GCA_000009565.2_ASM956v1.fna GCA_000010245.1_ASM1024v1.fna GCA_000010385.1_ASM1038v1.fna GCA_000010485.1_ASM1048v1.fna GCA_000010745.1_ASM1074v1.fna GCA_000010765.1_ASM1076v1.fna 
# ground truth paths, in the format 'weight node1 node2 node3 ... '
#T 26 0 2 8262 9976 1 
#T 13 0 12451 12467 12451 12467 1 
#T 14 0 23312 23313 23541 23568 23730 23757 23811 23838 24078 24108 24129 24171 24198 24231 24249 24294 24366 24435 24519 24546 24552 24600 24613 24684 24696 24726 24837 24864 24891 24918 24947 25017 25180 25207 25261 25288 25350 25377 25422 25449 25484 25547 25553 25625 25691 25718 25733 25760 25850 25885 26012 26063 26090 26117 26252 26279 26421 26448 26667 26694 26709 26781 26829 26856 26964 27020 27072 27099 27345 27372 27381 27408 27827 27854 27917 27947 28025 28052 28091 28118 28166 28214 28241 28287 28301 28346 28364 28400 28512 28539 28566 28572 28599 28605 28632 28741 28780 28833 28860 28942 28969 29020 29068 29242 29302 29332 29382 29488 29527 29565 29605 29608 29635 29671 29698 29731 29779 29833 29860 29909 1 
#T 35 0 1 
#T 4 0 49859 1 
#T 4 0 51573 2 8262 1 
#T 18 0 61548 1 
#T 57 0 71523 1 
#T 62 0 23313 23541 71549 23568 23730 71575 23757 23811 71601 23838 24078 71630 24108 24129 71671 24171 24198 71703 24231 24249 71747 24294 24366 71815 24435 24519 71841 24546 24552 71888 24600 24613 71958 24684 24696 71987 24726 24837 72013 24864 24891 72039 24918 24947 72108 25017 25180 72134 25207 25261 72160 25288 25350 72186 25377 25422 72212 25449 25484 72274 25547 25553 72345 25625 25691 72371 25718 25733 72397 25760 25850 72431 25885 26012 72481 26063 26090 72507 26117 26252 72533 26279 26421 72559 26448 26667 72585 26694 26709 72656 26781 26829 72682 26856 26964 72737 27020 27072 72763 27099 27345 72789 27372 27381 72815 27408 27827 72841 27854 27917 72870 27947 28025 72896 28052 28091 72922 28118 28166 72969 28214 28241 73014 28287 28301 73058 28346 28364 73093 28400 28512 73119 28539 73145 28566 28572 73171 28599 28605 73197 28632 28741 73235 28780 28833 73261 28860 28942 73287 28969 29020 73334 29068 29242 73393 29302 29332 73442 29382 29488 73480 29527 29565 73519 29605 29608 73545 29635 29671 73571 29698 29731 73618 29779 29833 73644 29860 29909 77022 1 
#T 113 0 86997 1 
# subpath constraints, in the format 'node1 node2 node3 ... '
# 0 subpath constraints for genome
#S 2 8262 9976 
#S 2 8262 
#S 2 8262 
#S 2 8262 
#S 2 8262 9976 
# 1 subpath constraints for genome
#S 12467 1 
#S 12467 1 
#S 12467 1 
#S 12467 12451 12467 1 
#S 12467 1 
# 2 subpath constraints for genome
#S 26252 26279 26421 26448 26667 26694 26709 26781 26829 26856 26964 27020 27072 27099 27345 
#S 24726 24837 24864 24891 24918 24947 25017 25180 25207 25261 25288 25350 25377 25422 25449 25484 25547 25553 25625 25691 25718 25733 25760 25850 
#S 0 23312 23313 23541 23568 23730 23757 23811 23838 24078 24108 24129 24171 
#S 0 23312 
#S 29382 29488 29527 29565 29605 29608 29635 29671 29698 29731 29779 29833 29860 29909 
# 3 subpath constraints for genome
#S 0 1 
#S 0 1 
#S 0 1 
#S 0 1 
#S 0 1 
# 4 subpath constraints for genome
#S 0 49859 
#S 0 49859 
#S 0 49859 
#S 0 49859 
#S 0 49859 
# 5 subpath constraints for genome
#S 2 8262 
#S 2 8262 
#S 0 51573 
#S 2 8262 
#S 0 51573 
# 6 subpath constraints for genome
#S 0 61548 
#S 0 61548 
#S 0 61548 
#S 0 61548 
#S 0 61548 
# 7 subpath constraints for genome
#S 0 71523 
#S 0 71523 
#S 0 71523 
#S 0 71523 
#S 0 71523 
# 8 subpath constraints for genome
#S 28166 72969 28214 28241 73014 28287 28301 73058 28346 28364 73093 28400 28512 73119 28539 73145 28566 28572 73171 28599 28605 73197 28632 28741 73235 28780 28833 73261 28860 28942 73287 28969 29020 73334 29068 29242 
#S 24366 71815 24435 24519 71841 24546 24552 71888 24600 24613 71958 24684 24696 71987 24726 24837 72013 24864 24891 72039 24918 24947 72108 25017 25180 72134 25207 25261 72160 25288 25350 72186 25377 25422 72212 
#S 26709 72656 26781 26829 72682 26856 26964 72737 27020 27072 72763 27099 27345 72789 27372 27381 72815 27408 27827 
#S 25553 72345 25625 25691 72371 25718 25733 72397 25760 25850 72431 25885 26012 72481 26063 26090 72507 26117 26252 72533 26279 26421 72559 26448 26667 
#S 25625 25691 72371 25718 25733 72397 25760 25850 72431 25885 26012 72481 26063 26090 72507 26117 26252 72533 26279 26421 72559 26448 26667 
# 9 subpath constraints for genome
#S 0 86997 
#S 0 86997 
#S 0 86997 
#S 0 86997 
#S 0 86997 
262
2 8262 24
8262 1 5
8262 9976 22
9976 1 32
12451 12467 36
12467 12451 9
12467 1 15
23312 23313 9
23313 23541 65
23541 23568 9
23541 71549 60
23568 23730 66
23730 23757 20
23730 71575 55
23757 23811 76
23811 23838 13
23811 71601 68
23838 24078 91
24078 24108 12
24078 71630 61
24108 24129 86
24129 24171 17
24129 71671 62
24171 24198 78
24198 24231 17
24198 71703 64
24231 24249 78
24249 24294 16
24249 71747 67
24294 24366 78
24366 24435 13
24366 71815 48
24435 24519 64
24519 24546 18
24519 71841 73
24546 24552 74
24552 24600 14
24552 71888 62
24600 24613 91
24613 24684 9
24613 71958 59
24684 24696 79
24696 24726 15
24696 71987 56
24726 24837 85
24837 24864 14
24837 72013 54
24864 24891 76
24891 24918 14
24891 72039 58
24918 24947 85
24947 25017 11
24947 72108 65
25017 25180 89
25180 25207 10
25180 72134 63
25207 25261 73
25261 25288 18
25261 72160 57
25288 25350 79
25350 25377 14
25350 72186 45
25377 25422 89
25422 25449 17
25422 72212 61
25449 25484 77
25484 25547 10
25484 72274 50
25547 25553 94
25553 25625 17
25553 72345 76
25625 25691 83
25691 25718 23
25691 72371 65
25718 25733 92
25733 25760 12
25733 72397 58
25760 25850 52
25850 25885 17
25850 72431 71
25885 26012 80
26012 26063 11
26012 72481 58
26063 26090 85
26090 26117 13
26090 72507 54
26117 26252 71
26252 26279 12
26252 72533 57
26279 26421 69
26421 26448 12
26421 72559 51
26448 26667 75
26667 26694 14
26667 72585 56
26694 26709 76
26709 26781 20
26709 72656 57
26781 26829 82
26829 26856 11
26829 72682 58
26856 26964 76
26964 27020 10
26964 72737 52
27020 27072 73
27072 27099 14
27072 72763 58
27099 27345 77
27345 27372 5
27345 72789 53
27372 27381 78
27381 27408 14
27381 72815 62
27408 27827 75
27827 27854 19
27827 72841 70
27854 27917 90
27917 27947 14
27917 72870 59
27947 28025 81
28025 28052 19
28025 72896 61
28052 28091 67
28091 28118 9
28091 72922 52
28118 28166 76
28166 28214 9
28166 72969 49
28214 28241 66
28241 28287 18
28241 73014 54
28287 28301 83
28301 28346 13
28301 73058 74
28346 28364 55
28364 28400 15
28364 73093 59
28400 28512 69
28512 28539 12
28512 73119 53
28539 28566 15
28539 73145 63
28566 28572 69
28572 28599 13
28572 73171 69
28599 28605 72
28605 28632 15
28605 73197 66
28632 28741 85
28741 28780 10
28741 73235 72
28780 28833 72
28833 28860 10
28833 73261 60
28860 28942 82
28942 28969 14
28942 73287 69
28969 29020 97
29020 29068 14
29020 73334 87
29068 29242 76
29242 29302 13
29242 73393 45
29302 29332 67
29332 29382 6
29332 73442 53
29382 29488 83
29488 29527 13
29488 73480 70
29527 29565 86
29565 29605 18
29565 73519 65
29605 29608 83
29608 29635 13
29608 73545 45
29635 29671 68
29671 29698 14
29671 73571 61
29698 29731 64
29731 29779 13
29731 73618 62
29779 29833 81
29833 29860 10
29833 73644 69
29860 29909 73
29909 1 10
29909 77022 53
49859 1 3
51573 2 6
61548 1 13
71523 1 61
71549 23568 63
71575 23757 55
71601 23838 58
71630 24108 62
71671 24171 58
71703 24231 70
71747 24294 67
71815 24435 68
71841 24546 62
71888 24600 63
71958 24684 71
71987 24726 54
72013 24864 51
72039 24918 69
72108 25017 69
72134 25207 63
72160 25288 66
72186 25377 80
72212 25449 70
72274 25547 70
72345 25625 54
72371 25718 64
72397 25760 53
72431 25885 59
72481 26063 60
72507 26117 65
72533 26279 63
72559 26448 57
72585 26694 52
72656 26781 68
72682 26856 72
72737 27020 56
72763 27099 61
72789 27372 62
72815 27408 47
72841 27854 62
72870 27947 64
72896 28052 67
72922 28118 64
72969 28214 65
73014 28287 61
73058 28346 72
73093 28400 53
73119 28539 58
73145 28566 71
73171 28599 61
73197 28632 68
73235 28780 70
73261 28860 59
73287 28969 58
73334 29068 76
73393 29302 61
73442 29382 59
73480 29527 70
73519 29605 60
73545 29635 57
73571 29698 65
73618 29779 66
73644 29860 46
77022 1 60
86997 1 115
0 2 35
0 23313 74
0 12451 20
0 23312 14
0 1 23
0 49859 6
0 51573 1
0 61548 20
0 71523 63
0 86997 100