#gt10.kmer27.(4360000.4370000).V73.E110.mincyc100.e1.0
#construct-flow-graph.py -o graphs-g10-w10000-k27-cyc/ -g 10 -w 10000 -k 27 --mincycles 1 --nreads 5 --readlength 1000 --distribution lognormal11 --pdf
#kmersize=27
#windowsize=10000
#acyclic=False
#mincycles=1
#distribution=lognormal11
#ngenomes=10
#nreads=5
#readlength=1000
#outdir=graphs-g10-w10000-k27-cyc/
#pdf=True
#erroreps=1.0
#unique source is 0, unique sink is 1
#genomes: GCA_000005845.2_ASM584v2.fna GCA_000006665.1_ASM666v1.fna GCA_000007445.1_ASM744v1.fna GCA_000008865.2_ASM886v2.fna GCA_000009565.2_ASM956v1.fna GCA_000010245.1_ASM1024v1.fna GCA_000010385.1_ASM1038v1.fna GCA_000010485.1_ASM1048v1.fna GCA_000010745.1_ASM1074v1.fna GCA_000010765.1_ASM1076v1.fna 
# ground truth paths, in the format 'weight node1 node2 node3 ... '
#T 7 0 2 5298 9976 1 
#T 18 0 10190 10193 10190 10193 1 
#T 121 0 1 
#T 9 0 39897 1 
#T 22 0 49872 1 
#T 103 0 54550 2 5298 1 
#T 31 0 64525 1 
#T 5 0 74500 1 
#T 16 0 81685 81696 81707 81712 81729 81756 81762 81773 81789 81800 81810 81837 81864 81869 81872 81876 81904 81911 81925 81926 81938 81939 81967 81994 81998 82000 82027 82038 82042 82083 82094 82121 82140 82152 82167 81696 81707 81712 81729 82188 82193 81756 81762 81773 81800 81810 82256 81837 81864 81869 81872 81876 81925 81926 81938 81939 81967 81994 81998 82000 82307 82324 82027 82038 82042 82339 82368 82083 82094 82396 82121 82140 82152 81685 81696 81707 81712 82188 82193 81756 81762 81789 81800 81810 82256 81837 82489 81864 81869 81926 81938 81939 81967 82571 81994 81998 82038 82042 82339 82638 82368 82083 82094 82396 82121 82140 82167 81696 81707 82696 82193 81756 81762 81773 81789 81800 81810 81837 81864 81869 81872 81904 81911 82732 81938 81939 81967 81994 81998 82000 82307 82784 83663 83722 83749 83776 83780 1 
#T 36 0 82696 82193 81756 81762 81773 81789 81800 81810 81837 81864 81869 81872 81904 81911 82732 81939 81967 81994 81998 82000 82307 82324 82784 83663 83873 83722 83749 83899 83776 83780 90841 90857 90911 90923 90841 90857 91061 90911 90923 90841 90857 91061 90911 90923 1 
# subpath constraints, in the format 'node1 node2 node3 ... '
# 0 subpath constraints for genome
#S 2 5298 
#S 5298 9976 
#S 2 5298 
#S 5298 9976 
#S 5298 9976 
# 1 subpath constraints for genome
#S 10193 1 
#S 10193 1 
#S 10193 1 
#S 10193 1 
#S 10193 1 
# 2 subpath constraints for genome
#S 0 1 
#S 0 1 
#S 0 1 
#S 0 1 
#S 0 1 
# 3 subpath constraints for genome
#S 0 39897 
#S 0 39897 
#S 0 39897 
#S 0 39897 
#S 0 39897 
# 4 subpath constraints for genome
#S 0 49872 
#S 0 49872 
#S 0 49872 
#S 0 49872 
#S 0 49872 
# 5 subpath constraints for genome
#S 0 54550 
#S 0 54550 
#S 2 5298 
#S 0 54550 
#S 0 54550 
# 6 subpath constraints for genome
#S 0 64525 
#S 0 64525 
#S 0 64525 
#S 0 64525 
#S 
# 7 subpath constraints for genome
#S 0 74500 
#S 0 74500 
#S 0 74500 
#S 0 74500 
#S 0 74500 
# 8 subpath constraints for genome
#S 81810 82256 81837 82489 81864 81869 81926 81938 81939 81967 82571 81994 81998 82038 82042 82339 82638 82368 82083 82094 82396 82121 82140 82167 81696 81707 82696 82193 81756 81762 81773 81789 81800 81810 81837 81864 81869 81872 81904 81911 82732 81938 81939 81967 81994 81998 82000 82307 82784 83663 
#S 0 81685 81696 81707 81712 81729 81756 81762 81773 81789 81800 81810 81837 81864 81869 81872 81876 81904 81911 81925 81926 81938 81939 81967 81994 81998 82000 82027 82038 82042 82083 82094 
#S 0 81685 
#S 0 81685 
#S 0 81685 
# 9 subpath constraints for genome
#S 90857 90911 90923 90841 90857 91061 90911 90923 90841 90857 91061 90911 90923 1 
#S 83780 90841 90857 90911 
#S 83780 90841 90857 90911 90923 90841 90857 91061 90911 90923 90841 
#S 83780 90841 
#S 83780 90841 
110
2 5298 116
5298 1 108
5298 9976 7
9976 1 7
10190 10193 42
10193 10190 22
10193 1 26
39897 1 9
49872 1 20
54550 2 105
64525 1 33
74500 1 4
81685 81696 33
81696 81707 58
81707 81712 57
81707 82696 16
81712 81729 28
81712 82188 14
81729 81756 17
81729 82188 16
81756 81762 99
81762 81773 98
81762 81789 18
81773 81789 77
81773 81800 8
81789 81800 83
81800 81810 97
81810 81837 70
81810 82256 43
81837 81864 103
81837 82489 21
81864 81869 106
81869 81872 87
81869 81926 14
81872 81876 25
81872 81904 77
81876 81904 13
81876 81925 15
81904 81911 59
81911 82732 47
81911 81925 18
81925 81926 35
81926 81938 37
81938 81939 68
81939 81967 98
81967 81994 88
81967 82571 19
81994 81998 118
81998 82000 78
81998 82038 21
82000 82027 21
82000 82307 66
82027 82038 27
82038 82042 50
82042 82083 13
82042 82339 33
82083 82094 55
82094 82121 19
82094 82396 28
82121 82140 45
82140 82152 29
82140 82167 15
82152 82167 10
82152 81685 26
82167 81696 27
82188 82193 26
82193 81756 83
82256 81837 35
82307 82324 43
82307 82784 19
82324 82027 12
82324 82784 26
82339 82368 18
82339 82638 15
82368 82083 42
82396 82121 30
82489 81864 24
82571 81994 18
82638 82368 21
82696 82193 50
82732 81938 12
82732 81939 46
82784 83663 46
83663 83722 19
83663 83873 29
83722 83749 57
83749 83776 12
83749 83899 33
83776 83780 50
83780 1 16
83780 90841 45
83873 83722 43
83899 83776 33
90841 90857 108
90857 90911 35
90857 91061 68
90911 90923 112
90923 90841 76
90923 1 34
91061 90911 72
0 2 6
0 82696 35
0 10190 22
0 1 122
0 39897 13
0 49872 30
0 54550 103
0 64525 28
0 74500 5
0 81685 15