#gt10.kmer27.(2390000.2400000).V124.E172.mincyc3.e1.0
#construct-flow-graph.py -o graphs-g10-w10000-k27-cyc/ -g 10 -w 10000 -k 27 --mincycles 1 --nreads 5 --readlength 1000 --distribution lognormal11 --pdf
#kmersize=27
#windowsize=10000
#acyclic=False
#mincycles=1
#distribution=lognormal11
#ngenomes=10
#nreads=5
#readlength=1000
#outdir=graphs-g10-w10000-k27-cyc/
#pdf=True
#erroreps=1.0
#unique source is 0, unique sink is 1
#genomes: GCA_000005845.2_ASM584v2.fna GCA_000006665.1_ASM666v1.fna GCA_000007445.1_ASM744v1.fna GCA_000008865.2_ASM886v2.fna GCA_000009565.2_ASM956v1.fna GCA_000010245.1_ASM1024v1.fna GCA_000010385.1_ASM1038v1.fna GCA_000010485.1_ASM1048v1.fna GCA_000010745.1_ASM1074v1.fna GCA_000010765.1_ASM1076v1.fna 
# ground truth paths, in the format 'weight node1 node2 node3 ... '
#T 12 0 2 5306 9976 1 
#T 89 0 1 
#T 15 0 29926 1 
#T 37 0 39901 1 
#T 189 0 44468 44523 44468 44523 47307 47357 47422 47307 47357 47429 47422 47307 47357 47429 1 
#T 11 0 54380 2 5306 1 
#T 124 0 64355 1 
#T 16 0 74330 1 
#T 44 0 74331 74342 74369 74402 74429 74433 74460 74477 74504 74511 74552 74612 74648 74666 74696 74714 74774 74934 74961 74990 75017 75032 75072 75173 75201 75231 75279 75489 75516 75562 76914 76921 77322 77380 77407 77452 77502 77577 77630 77637 77694 77727 77817 77829 77856 77886 77946 78013 78040 78057 78084 78090 78117 78135 78243 78246 78273 78282 78327 78336 78363 78390 78417 78423 78450 78477 78504 78552 78615 78701 78805 1 
#T 24 0 89758 74331 74342 89784 74369 74402 89810 74429 74433 89836 74460 74477 89862 74504 74511 89902 74552 74612 89937 74648 74666 89966 74696 74714 90025 74774 74934 90051 74961 74990 90077 75017 75032 90116 75072 75173 90143 75201 75231 90190 75279 75489 90216 75516 75562 91586 76914 76921 91992 77322 77380 92018 77407 77452 92067 77502 77577 92119 77630 77637 92175 77694 77727 92264 77817 77829 92290 77856 77886 92349 77946 78013 92375 78040 78057 92401 78084 78090 92427 78117 78135 92534 78243 78246 92560 78273 78282 92604 78327 78336 92630 78363 78390 92656 78417 78423 92682 78450 78477 92708 78504 78552 92770 78615 92855 78701 78805 92877 1 
# subpath constraints, in the format 'node1 node2 node3 ... '
# 0 subpath constraints for genome
#S 5306 9976 
#S 2 5306 
#S 2 5306 
#S 5306 9976 
#S 2 5306 9976 
# 1 subpath constraints for genome
#S 0 1 
#S 0 1 
#S 0 1 
#S 0 1 
#S 0 1 
# 2 subpath constraints for genome
#S 0 29926 
#S 0 29926 
#S 0 29926 
#S 0 29926 
#S 0 29926 
# 3 subpath constraints for genome
#S 0 39901 
#S 0 39901 
#S 0 39901 
#S 0 39901 
#S 0 39901 
# 4 subpath constraints for genome
#S 0 44468 
#S 47429 1 
#S 0 44468 
#S 44523 47307 
#S 44523 47307 
# 5 subpath constraints for genome
#S 0 54380 
#S 2 5306 
#S 0 54380 
#S 0 54380 
#S 0 54380 
# 6 subpath constraints for genome
#S 0 64355 
#S 0 64355 
#S 0 64355 
#S 0 64355 
#S 0 64355 
# 7 subpath constraints for genome
#S 0 74330 
#S 0 74330 
#S 0 74330 
#S 0 74330 
#S 0 74330 
# 8 subpath constraints for genome
#S 77322 77380 77407 77452 77502 77577 77630 77637 77694 77727 77817 77829 77856 77886 77946 78013 78040 78057 78084 78090 78117 78135 78243 78246 78273 78282 78327 78336 
#S 77322 77380 77407 77452 77502 77577 77630 77637 77694 77727 77817 77829 77856 77886 77946 78013 78040 78057 78084 78090 78117 78135 78243 78246 78273 78282 78327 
#S 78805 1 
#S 75562 76914 76921 77322 77380 77407 77452 
#S 78805 1 
# 9 subpath constraints for genome
#S 0 89758 
#S 0 89758 
#S 77727 92264 77817 77829 92290 77856 77886 92349 77946 78013 92375 78040 78057 92401 78084 78090 92427 78117 78135 92534 78243 78246 92560 78273 78282 92604 78327 78336 92630 78363 78390 92656 78417 78423 92682 78450 78477 92708 78504 78552 92770 78615 92855 78701 78805 
#S 0 89758 
#S 0 89758 
172
2 5306 23
5306 1 10
5306 9976 8
9976 1 16
29926 1 14
39901 1 29
44468 44523 387
44523 44468 177
44523 47307 162
47307 47357 574
47357 47422 181
47357 47429 363
47422 47307 345
47429 47422 202
47429 1 196
54380 2 9
64355 1 131
74330 1 19
74331 74342 69
74342 74369 43
74342 89784 25
74369 74402 77
74402 74429 46
74402 89810 29
74429 74433 80
74433 74460 57
74433 89836 29
74460 74477 64
74477 74504 40
74477 89862 22
74504 74511 72
74511 74552 39
74511 89902 25
74552 74612 64
74612 74648 51
74612 89937 20
74648 74666 77
74666 74696 46
74666 89966 20
74696 74714 52
74714 74774 46
74714 90025 23
74774 74934 75
74934 74961 44
74934 90051 31
74961 74990 60
74990 75017 48
74990 90077 16
75017 75032 67
75032 75072 50
75032 90116 19
75072 75173 62
75173 75201 39
75173 90143 23
75201 75231 64
75231 75279 50
75231 90190 26
75279 75489 79
75489 75516 42
75489 90216 30
75516 75562 69
75562 76914 49
75562 91586 27
76914 76921 68
76921 77322 37
76921 91992 29
77322 77380 69
77380 77407 43
77380 92018 29
77407 77452 68
77452 77502 43
77452 92067 29
77502 77577 71
77577 77630 40
77577 92119 14
77630 77637 77
77637 77694 52
77637 92175 14
77694 77727 60
77727 77817 31
77727 92264 18
77817 77829 69
77829 77856 54
77829 92290 26
77856 77886 65
77886 77946 58
77886 92349 34
77946 78013 59
78013 78040 56
78013 92375 24
78040 78057 61
78057 78084 41
78057 92401 24
78084 78090 58
78090 78117 44
78090 92427 17
78117 78135 70
78135 78243 51
78135 92534 26
78243 78246 66
78246 78273 40
78246 92560 22
78273 78282 70
78282 78327 41
78282 92604 20
78327 78336 58
78336 78363 58
78336 92630 19
78363 78390 74
78390 78417 32
78390 92656 19
78417 78423 64
78423 78450 44
78423 92682 28
78450 78477 70
78477 78504 45
78477 92708 27
78504 78552 72
78552 78615 44
78552 92770 15
78615 78701 50
78615 92855 14
78701 78805 65
78805 1 35
78805 92877 23
89758 74331 25
89784 74369 15
89810 74429 28
89836 74460 19
89862 74504 19
89902 74552 23
89937 74648 20
89966 74696 22
90025 74774 21
90051 74961 22
90077 75017 16
90116 75072 32
90143 75201 22
90190 75279 28
90216 75516 31
91586 76914 25
91992 77322 18
92018 77407 18
92067 77502 17
92119 77630 28
92175 77694 23
92264 77817 20
92290 77856 22
92349 77946 29
92375 78040 25
92401 78084 21
92427 78117 30
92534 78243 26
92560 78273 25
92604 78327 24
92630 78363 18
92656 78417 19
92682 78450 25
92708 78504 24
92770 78615 18
92855 78701 26
92877 1 22
0 2 9
0 74331 45
0 1 98
0 29926 21
0 39901 29
0 44468 178
0 54380 14
0 64355 129
0 74330 15
0 89758 18