#gt10.kmer27.(4300000.4310000).V58.E85.mincyc4.e1.0
#construct-flow-graph.py -o graphs-g10-w10000-k27-cyc/ -g 10 -w 10000 -k 27 --mincycles 1 --nreads 5 --readlength 1000 --distribution lognormal11 --pdf
#kmersize=27
#windowsize=10000
#acyclic=False
#mincycles=1
#distribution=lognormal11
#ngenomes=10
#nreads=5
#readlength=1000
#outdir=graphs-g10-w10000-k27-cyc/
#pdf=True
#erroreps=1.0
#unique source is 0, unique sink is 1
#genomes: GCA_000005845.2_ASM584v2.fna GCA_000006665.1_ASM666v1.fna GCA_000007445.1_ASM744v1.fna GCA_000008865.2_ASM886v2.fna GCA_000009565.2_ASM956v1.fna GCA_000010245.1_ASM1024v1.fna GCA_000010385.1_ASM1038v1.fna GCA_000010485.1_ASM1048v1.fna GCA_000010745.1_ASM1074v1.fna GCA_000010765.1_ASM1076v1.fna 
# ground truth paths, in the format 'weight node1 node2 node3 ... '
#T 38 0 2 6497 9976 1 
#T 14 0 1 
#T 28 0 21613 21621 21613 21621 21613 21621 21613 21621 21613 21621 21613 21621 21613 21621 21613 21621 21613 21621 21613 21621 21613 21621 21613 21621 21613 21621 21613 21621 21613 21621 21613 21621 21613 21621 21613 21621 21613 21621 21613 21621 21613 21621 21613 21621 1 
#T 60 0 39712 1 
#T 7 0 49687 1 
#T 108 0 49711 49720 49801 49891 49918 49921 49948 49978 50020 50049 50092 50140 2 6497 1 
#T 19 0 63141 1 
#T 20 0 72158 72175 72182 72199 72227 72248 72158 72175 72182 72199 72298 72227 72248 72158 72175 72248 72158 72175 72182 49711 49720 72612 49801 49891 72638 49918 49921 72664 49948 49978 72705 50020 50049 72747 50092 50140 1 
#T 38 0 81791 81792 81860 81974 82272 82341 82368 82371 82425 82515 82572 82581 82608 82647 82674 82722 1 
#T 70 0 81792 81860 82835 81974 82272 82903 82341 82929 82368 82371 82982 82425 82515 83038 82572 82581 83064 82608 82647 83090 82674 82722 92134 1 
# subpath constraints, in the format 'node1 node2 node3 ... '
# 0 subpath constraints for genome
#S 2 6497 
#S 6497 9976 
#S 6497 9976 
#S 6497 9976 
#S 6497 9976 
# 1 subpath constraints for genome
#S 0 1 
#S 0 1 
#S 0 1 
#S 0 1 
#S 0 1 
# 2 subpath constraints for genome
#S 21621 1 
#S 21621 1 
#S 21621 1 
#S 21621 1 
#S 0 21613 
# 3 subpath constraints for genome
#S 0 39712 
#S 0 39712 
#S 0 39712 
#S 0 39712 
#S 0 39712 
# 4 subpath constraints for genome
#S 0 49687 
#S 0 49687 
#S 0 49687 
#S 0 49687 
#S 0 49687 
# 5 subpath constraints for genome
#S 2 6497 
#S 2 6497 
#S 2 6497 
#S 50140 2 
#S 50140 2 
# 6 subpath constraints for genome
#S 0 63141 
#S 0 63141 
#S 0 63141 
#S 0 63141 
#S 0 63141 
# 7 subpath constraints for genome
#S 0 72158 
#S 0 72158 
#S 0 72158 
#S 0 72158 
#S 0 72158 
# 8 subpath constraints for genome
#S 0 81791 
#S 0 81791 
#S 0 81791 
#S 0 81791 81792 81860 81974 82272 82341 82368 82371 82425 
#S 0 81791 
# 9 subpath constraints for genome
#S 82722 92134 
#S 82722 92134 
#S 82722 92134 
#S 82722 92134 
#S 82722 92134 
85
2 6497 137
6497 1 101
6497 9976 34
9976 1 26
21613 21621 656
21621 21613 588
21621 1 24
39712 1 69
49687 1 8
49711 49720 144
49720 49801 114
49720 72612 27
49801 49891 148
49891 49918 107
49891 72638 21
49918 49921 118
49921 49948 101
49921 72664 17
49948 49978 101
49978 50020 92
49978 72705 20
50020 50049 126
50049 50092 115
50049 72747 14
50092 50140 151
50140 1 16
50140 2 116
63141 1 20
72158 72175 76
72175 72182 54
72175 72248 28
72182 72199 42
72182 49711 13
72199 72227 24
72199 72298 18
72227 72248 32
72248 72158 53
72298 72227 14
72612 49801 22
72638 49918 23
72664 49948 29
72705 50020 21
72747 50092 24
81791 81792 44
81792 81860 128
81860 81974 46
81860 82835 74
81974 82272 86
82272 82341 26
82272 82903 74
82341 82368 40
82341 82929 70
82368 82371 126
82371 82425 39
82371 82982 65
82425 82515 138
82515 82572 37
82515 83038 73
82572 82581 89
82581 82608 38
82581 83064 79
82608 82647 114
82647 82674 35
82647 83090 77
82674 82722 106
82722 1 37
82722 92134 87
82835 81974 81
82903 82341 61
82929 82368 62
82982 82425 80
83038 82572 70
83064 82608 70
83090 82674 70
92134 1 67
0 2 33
0 81792 90
0 1 19
0 21613 34
0 39712 67
0 49687 9
0 49711 135
0 63141 18
0 72158 26
0 81791 41