#gt10.kmer27.(3380000.3390000).V29.E46.mincyc10.e1.0
#construct-flow-graph.py -o graphs-g10-w10000-k27-cyc/ -g 10 -w 10000 -k 27 --mincycles 1 --nreads 5 --readlength 1000 --distribution lognormal11 --pdf
#kmersize=27
#windowsize=10000
#acyclic=False
#mincycles=1
#distribution=lognormal11
#ngenomes=10
#nreads=5
#readlength=1000
#outdir=graphs-g10-w10000-k27-cyc/
#pdf=True
#erroreps=1.0
#unique source is 0, unique sink is 1
#genomes: GCA_000005845.2_ASM584v2.fna GCA_000006665.1_ASM666v1.fna GCA_000007445.1_ASM744v1.fna GCA_000008865.2_ASM886v2.fna GCA_000009565.2_ASM956v1.fna GCA_000010245.1_ASM1024v1.fna GCA_000010385.1_ASM1038v1.fna GCA_000010485.1_ASM1048v1.fna GCA_000010745.1_ASM1074v1.fna GCA_000010765.1_ASM1076v1.fna 
# ground truth paths, in the format 'weight node1 node2 node3 ... '
#T 39 0 146 147 9976 1 
#T 51 0 1 
#T 17 0 29926 1 
#T 25 0 33074 33079 33106 1 
#T 13 0 49876 1 
#T 32 0 147 9976 50021 1 
#T 10 0 59996 1 
#T 25 0 62140 62217 62140 62217 1 
#T 26 0 79868 1 
#T 45 0 81137 81139 81192 81200 81225 81252 81266 81273 81321 81409 81139 81192 81200 81225 81439 81252 81266 81273 81137 81139 81192 81200 81266 81273 81321 81593 81409 81139 81192 33074 33079 85886 33106 89548 1 
# subpath constraints, in the format 'node1 node2 node3 ... '
# 0 subpath constraints for genome
#S 147 9976 
#S 147 9976 
#S 147 9976 
#S 147 9976 
#S 147 9976 
# 1 subpath constraints for genome
#S 0 1 
#S 0 1 
#S 0 1 
#S 0 1 
#S 0 1 
# 2 subpath constraints for genome
#S 0 29926 
#S 0 29926 
#S 0 29926 
#S 0 29926 
#S 0 29926 
# 3 subpath constraints for genome
#S 33106 1 
#S 33106 1 
#S 33106 1 
#S 0 33074 33079 33106 1 
#S 33106 1 
# 4 subpath constraints for genome
#S 0 49876 
#S 0 49876 
#S 0 49876 
#S 0 49876 
#S 0 49876 
# 5 subpath constraints for genome
#S 147 9976 
#S 147 9976 
#S 
#S 147 9976 
#S 147 9976 
# 6 subpath constraints for genome
#S 0 59996 
#S 0 59996 
#S 0 59996 
#S 0 59996 
#S 0 59996 
# 7 subpath constraints for genome
#S 62217 1 
#S 62217 1 
#S 62217 1 
#S 0 62140 62217 62140 62217 1 
#S 62217 1 
# 8 subpath constraints for genome
#S 0 79868 
#S 0 79868 
#S 0 79868 
#S 0 79868 
#S 0 79868 
# 9 subpath constraints for genome
#S 81200 81225 81252 81266 81273 81321 81409 81139 81192 81200 81225 81439 81252 81266 81273 81137 81139 81192 81200 81266 81273 81321 81593 81409 81139 81192 33074 
#S 81192 33074 
#S 81192 33074 33079 85886 33106 89548 
#S 81192 33074 
#S 33106 89548 
46
146 147 31
147 9976 73
9976 1 31
9976 50021 42
29926 1 18
33074 33079 80
33079 33106 27
33079 85886 52
33106 1 17
33106 89548 38
49876 1 17
50021 1 33
59996 1 13
62140 62217 46
62217 62140 26
62217 1 30
79868 1 29
81137 81139 105
81139 81192 171
81192 81200 127
81192 33074 46
81200 81225 94
81200 81266 40
81225 81252 53
81225 81439 56
81252 81266 84
81266 81273 138
81273 81321 90
81273 81137 44
81321 81409 44
81321 81593 43
81409 81139 75
81439 81252 42
81593 81409 46
85886 33106 48
89548 1 42
0 147 46
0 146 37
0 1 51
0 29926 18
0 33074 27
0 49876 18
0 59996 10
0 62140 27
0 79868 18
0 81137 45