#gt10.kmer27.(2650000.2660000).V26.E43.mincyc17.e1.0
#construct-flow-graph.py -o graphs-g10-w10000-k27-cyc/ -g 10 -w 10000 -k 27 --mincycles 1 --nreads 5 --readlength 1000 --distribution lognormal11 --pdf
#kmersize=27
#windowsize=10000
#acyclic=False
#mincycles=1
#distribution=lognormal11
#ngenomes=10
#nreads=5
#readlength=1000
#outdir=graphs-g10-w10000-k27-cyc/
#pdf=True
#erroreps=1.0
#unique source is 0, unique sink is 1
#genomes: GCA_000005845.2_ASM584v2.fna GCA_000006665.1_ASM666v1.fna GCA_000007445.1_ASM744v1.fna GCA_000008865.2_ASM886v2.fna GCA_000009565.2_ASM956v1.fna GCA_000010245.1_ASM1024v1.fna GCA_000010385.1_ASM1038v1.fna GCA_000010485.1_ASM1048v1.fna GCA_000010745.1_ASM1074v1.fna GCA_000010765.1_ASM1076v1.fna 
# ground truth paths, in the format 'weight node1 node2 node3 ... '
#T 189 0 1345 1346 3470 3478 3470 3478 9967 1 
#T 23 0 1 
#T 29 0 29917 1 
#T 65 0 39892 1 
#T 18 0 47627 47630 47635 47688 47696 47730 47742 47769 47817 47627 47630 47635 47688 47696 47933 47730 47742 47953 47769 47635 47688 47696 47953 47769 47817 47630 47635 47688 1 
#T 6 0 1346 3470 3478 3470 3478 9967 50950 1 
#T 2 0 60925 1 
#T 7 0 70900 1 
#T 15 0 80875 1 
#T 34 0 81772 81776 81772 81776 1 
# subpath constraints, in the format 'node1 node2 node3 ... '
# 0 subpath constraints for genome
#S 3478 3470 3478 9967 
#S 3478 9967 
#S 0 1345 1346 3470 
#S 3478 9967 
#S 3478 9967 
# 1 subpath constraints for genome
#S 0 1 
#S 0 1 
#S 0 1 
#S 0 1 
#S 0 1 
# 2 subpath constraints for genome
#S 0 29917 
#S 0 29917 
#S 0 29917 
#S 0 29917 
#S 0 29917 
# 3 subpath constraints for genome
#S 0 39892 
#S 0 39892 
#S 0 39892 
#S 0 39892 
#S 0 39892 
# 4 subpath constraints for genome
#S 0 47627 47630 47635 47688 47696 47730 47742 47769 47817 47627 47630 47635 47688 47696 47933 47730 47742 47953 47769 47635 47688 47696 47953 
#S 0 47627 
#S 47635 47688 47696 47730 47742 47769 47817 47627 47630 47635 47688 47696 47933 47730 47742 47953 47769 47635 47688 47696 47953 47769 47817 47630 47635 47688 1 
#S 0 47627 
#S 0 47627 
# 5 subpath constraints for genome
#S 1346 3470 
#S 9967 50950 
#S 3478 9967 
#S 9967 50950 
#S 3478 9967 50950 
# 6 subpath constraints for genome
#S 0 60925 
#S 0 60925 
#S 0 60925 
#S 0 60925 
#S 0 60925 
# 7 subpath constraints for genome
#S 0 70900 
#S 0 70900 
#S 0 70900 
#S 0 70900 
#S 0 70900 
# 8 subpath constraints for genome
#S 0 80875 
#S 0 80875 
#S 0 80875 
#S 0 80875 
#S 0 80875 
# 9 subpath constraints for genome
#S 81776 1 
#S 81776 1 
#S 81776 1 
#S 81776 1 
#S 81776 1 
43
1345 1346 178
1346 3470 159
3470 3478 374
3478 3470 202
3478 9967 174
9967 1 158
9967 50950 4
29917 1 37
39892 1 67
47627 47630 39
47630 47635 53
47635 47688 70
47688 47696 47
47688 1 25
47696 47730 15
47696 47933 20
47696 47953 20
47730 47742 34
47742 47769 26
47742 47953 16
47769 47817 38
47769 47635 22
47817 47627 16
47817 47630 15
47933 47730 12
47953 47769 42
50950 1 3
60925 1 4
70900 1 9
80875 1 8
81772 81776 84
81776 81772 35
81776 1 37
0 1346 4
0 1345 194
0 1 24
0 29917 28
0 39892 68
0 47627 18
0 60925 4
0 70900 9
0 80875 9
0 81772 36