#gt10.kmer27.(4200000.4210000).V109.E158.mincyc70.e1.0
#construct-flow-graph.py -o graphs-g10-w10000-k27-cyc/ -g 10 -w 10000 -k 27 --mincycles 1 --nreads 5 --readlength 1000 --distribution lognormal11 --pdf
#kmersize=27
#windowsize=10000
#acyclic=False
#mincycles=1
#distribution=lognormal11
#ngenomes=10
#nreads=5
#readlength=1000
#outdir=graphs-g10-w10000-k27-cyc/
#pdf=True
#erroreps=1.0
#unique source is 0, unique sink is 1
#genomes: GCA_000005845.2_ASM584v2.fna GCA_000006665.1_ASM666v1.fna GCA_000007445.1_ASM744v1.fna GCA_000008865.2_ASM886v2.fna GCA_000009565.2_ASM956v1.fna GCA_000010245.1_ASM1024v1.fna GCA_000010385.1_ASM1038v1.fna GCA_000010485.1_ASM1048v1.fna GCA_000010745.1_ASM1074v1.fna GCA_000010765.1_ASM1076v1.fna 
# ground truth paths, in the format 'weight node1 node2 node3 ... '
#T 72 0 7781 7959 7993 8034 8061 8068 8096 8104 8133 8197 8237 8258 8285 9678 9705 9948 9975 9976 1 
#T 16 0 1 
#T 8 0 21763 21828 21831 21763 21828 21831 27408 27411 27438 27441 27465 27486 27492 27558 27592 27619 27621 27624 27408 27411 27662 27438 27441 27694 27712 27492 27558 27592 27740 27619 27621 27624 27761 27767 27662 27438 27441 27465 27694 27712 27492 27558 27592 27740 27619 27621 27624 27761 27767 27465 27486 27842 27866 27558 27592 27740 27761 27767 27465 27694 27712 27842 27866 27621 1 
#T 75 0 31173 31178 31173 31178 1 
#T 37 0 42570 42619 42570 42619 42570 42619 21828 1 
#T 89 0 59097 1 
#T 14 0 59098 59126 59165 59559 59586 59853 59932 60048 1 
#T 53 0 69093 7781 7959 69128 7993 8034 69154 8061 8068 69180 8096 8104 69207 8133 8197 69246 8237 8258 69272 8285 9678 69298 9705 9948 69324 9975 9976 59098 59126 71577 59165 59559 71603 59586 59853 71688 59932 60048 76273 1 
#T 14 0 82196 82197 82203 82230 82513 82546 82903 82945 82966 82993 82999 83026 83263 83320 83335 83362 84065 84092 84788 84839 84857 84962 84980 85007 85115 85142 86248 1 
#T 9 0 82197 82203 86274 82230 82513 86306 82546 82903 86347 82945 82966 86373 82993 82999 86399 83026 83263 86455 83320 83335 86481 83362 84065 86507 84092 84788 86557 84839 84857 86661 84962 84980 86687 85007 85115 86713 85142 86248 92636 1 
# subpath constraints, in the format 'node1 node2 node3 ... '
# 0 subpath constraints for genome
#S 0 7781 
#S 0 7781 
#S 8285 9678 
#S 0 7781 
#S 8285 9678 9705 9948 9975 
# 1 subpath constraints for genome
#S 0 1 
#S 0 1 
#S 0 1 
#S 0 1 
#S 0 1 
# 2 subpath constraints for genome
#S 21831 27408 
#S 27621 1 
#S 21831 27408 
#S 0 21763 
#S 0 21763 
# 3 subpath constraints for genome
#S 31178 1 
#S 31178 1 
#S 31178 1 
#S 31178 1 
#S 0 31173 31178 31173 
# 4 subpath constraints for genome
#S 42570 42619 42570 42619 21828 1 
#S 21828 1 
#S 0 42570 
#S 0 42570 42619 42570 
#S 0 42570 
# 5 subpath constraints for genome
#S 0 59097 
#S 0 59097 
#S 0 59097 
#S 0 59097 
#S 0 59097 
# 6 subpath constraints for genome
#S 60048 1 
#S 60048 1 
#S 59586 59853 59932 60048 1 
#S 60048 1 
#S 60048 1 
# 7 subpath constraints for genome
#S 60048 76273 
#S 8285 9678 69298 9705 9948 69324 9975 9976 59098 
#S 60048 76273 
#S 60048 76273 
#S 60048 76273 
# 8 subpath constraints for genome
#S 85142 86248 
#S 84092 84788 84839 84857 84962 84980 85007 85115 85142 86248 
#S 0 82196 
#S 85142 86248 
#S 0 82196 
# 9 subpath constraints for genome
#S 86248 92636 
#S 86248 92636 
#S 86248 92636 
#S 86248 92636 
#S 84092 84788 86557 84839 84857 86661 84962 84980 86687 85007 85115 
158
7781 7959 127
7959 7993 73
7959 69128 54
7993 8034 118
8034 8061 57
8034 69154 48
8061 8068 140
8068 8096 61
8068 69180 51
8096 8104 130
8104 8133 67
8104 69207 53
8133 8197 118
8197 8237 57
8197 69246 45
8237 8258 106
8258 8285 72
8258 69272 53
8285 9678 120
9678 9705 71
9678 69298 45
9705 9948 138
9948 9975 80
9948 69324 45
9975 9976 106
9976 1 75
9976 59098 42
21763 21828 16
21828 21831 18
21828 1 44
21831 21763 3
21831 27408 7
27408 27411 18
27411 27438 11
27411 27662 7
27438 27441 21
27441 27465 13
27441 27694 12
27465 27486 17
27465 27694 22
27486 27492 11
27486 27842 8
27492 27558 19
27558 27592 27
27592 27619 7
27592 27740 24
27619 27621 27
27621 27624 26
27621 1 9
27624 27408 10
27624 27761 13
27662 27438 20
27694 27712 18
27712 27492 18
27712 27842 6
27740 27619 11
27740 27761 8
27761 27767 30
27767 27662 7
27767 27465 15
27842 27866 16
27866 27558 5
27866 27621 8
31173 31178 169
31178 31173 74
31178 1 70
42570 42619 121
42619 42570 82
42619 21828 31
59097 1 94
59098 59126 60
59126 59165 15
59126 71577 50
59165 59559 63
59559 59586 15
59559 71603 58
59586 59853 63
59853 59932 15
59853 71688 66
59932 60048 60
60048 1 10
60048 76273 50
69093 7781 47
69128 7993 42
69154 8061 53
69180 8096 54
69207 8133 47
69246 8237 56
69272 8285 58
69298 9705 63
69324 9975 47
71577 59165 61
71603 59586 58
71688 59932 56
76273 1 60
82196 82197 13
82197 82203 27
82203 82230 11
82203 86274 6
82230 82513 21
82513 82546 14
82513 86306 9
82546 82903 23
82903 82945 18
82903 86347 11
82945 82966 18
82966 82993 20
82966 86373 8
82993 82999 20
82999 83026 20
82999 86399 9
83026 83263 26
83263 83320 9
83263 86455 6
83320 83335 20
83335 83362 20
83335 86481 15
83362 84065 34
84065 84092 14
84065 86507 11
84092 84788 23
84788 84839 17
84788 86557 3
84839 84857 24
84857 84962 11
84857 86661 4
84962 84980 21
84980 85007 14
84980 86687 9
85007 85115 24
85115 85142 19
85115 86713 13
85142 86248 17
86248 1 18
86248 92636 6
86274 82230 9
86306 82546 13
86347 82945 11
86373 82993 6
86399 83026 8
86455 83320 9
86481 83362 11
86507 84092 10
86557 84839 12
86661 84962 9
86687 85007 6
86713 85142 11
92636 1 11
0 59098 13
0 82197 14
0 7781 82
0 1 19
0 21763 8
0 31173 74
0 42570 26
0 59097 82
0 69093 51
0 82196 17