#gt10.kmer27.(4350000.4360000).V42.E62.mincyc1.e1.0
#construct-flow-graph.py -o graphs-g10-w10000-k27-cyc/ -g 10 -w 10000 -k 27 --mincycles 1 --nreads 5 --readlength 1000 --distribution lognormal11 --pdf
#kmersize=27
#windowsize=10000
#acyclic=False
#mincycles=1
#distribution=lognormal11
#ngenomes=10
#nreads=5
#readlength=1000
#outdir=graphs-g10-w10000-k27-cyc/
#pdf=True
#erroreps=1.0
#unique source is 0, unique sink is 1
#genomes: GCA_000005845.2_ASM584v2.fna GCA_000006665.1_ASM666v1.fna GCA_000007445.1_ASM744v1.fna GCA_000008865.2_ASM886v2.fna GCA_000009565.2_ASM956v1.fna GCA_000010245.1_ASM1024v1.fna GCA_000010385.1_ASM1038v1.fna GCA_000010485.1_ASM1048v1.fna GCA_000010745.1_ASM1074v1.fna GCA_000010765.1_ASM1076v1.fna 
# ground truth paths, in the format 'weight node1 node2 node3 ... '
#T 6 0 2 5298 9976 1 
#T 220 0 1 
#T 51 0 29926 1 
#T 20 0 39901 1 
#T 27 0 49876 1 
#T 140 0 54554 2 5298 1 
#T 20 0 64529 1 
#T 10 0 74504 1 
#T 12 0 82225 82226 82278 82305 83023 83050 83376 83403 83430 83524 83575 83665 83710 84046 84073 84188 84215 84261 84288 84479 1 
#T 33 0 82226 82278 84505 82305 83023 84531 83050 83376 84557 83403 84583 83430 83524 84633 83575 83665 84677 83710 84046 84703 84073 84188 84729 84215 84261 84755 84288 84479 91976 91987 91976 91987 1 
# subpath constraints, in the format 'node1 node2 node3 ... '
# 0 subpath constraints for genome
#S 5298 9976 
#S 2 5298 
#S 2 5298 
#S 2 5298 
#S 5298 9976 
# 1 subpath constraints for genome
#S 0 1 
#S 0 1 
#S 0 1 
#S 0 1 
#S 0 1 
# 2 subpath constraints for genome
#S 0 29926 
#S 0 29926 
#S 0 29926 
#S 0 29926 
#S 0 29926 
# 3 subpath constraints for genome
#S 0 39901 
#S 0 39901 
#S 0 39901 
#S 0 39901 
#S 0 39901 
# 4 subpath constraints for genome
#S 0 49876 
#S 0 49876 
#S 0 49876 
#S 0 49876 
#S 0 49876 
# 5 subpath constraints for genome
#S 0 54554 
#S 2 5298 
#S 0 54554 
#S 0 54554 
#S 2 5298 
# 6 subpath constraints for genome
#S 0 64529 
#S 0 64529 
#S 0 64529 
#S 0 64529 
#S 0 64529 
# 7 subpath constraints for genome
#S 0 74504 
#S 0 74504 
#S 0 74504 
#S 0 74504 
#S 0 74504 
# 8 subpath constraints for genome
#S 0 82225 
#S 0 82225 
#S 0 82225 
#S 0 82225 
#S 0 82225 
# 9 subpath constraints for genome
#S 84479 91976 91987 91976 
#S 84479 91976 
#S 84479 91976 
#S 84479 91976 
#S 84479 91976 
62
2 5298 152
5298 1 127
5298 9976 2
9976 1 7
29926 1 45
39901 1 19
49876 1 15
54554 2 155
64529 1 24
74504 1 9
82225 82226 14
82226 82278 32
82278 82305 13
82278 84505 29
82305 83023 46
83023 83050 14
83023 84531 37
83050 83376 45
83376 83403 15
83376 84557 26
83403 83430 10
83403 84583 49
83430 83524 34
83524 83575 17
83524 84633 40
83575 83665 56
83665 83710 6
83665 84677 29
83710 84046 44
84046 84073 11
84046 84703 29
84073 84188 43
84188 84215 13
84188 84729 30
84215 84261 37
84261 84288 15
84261 84755 34
84288 84479 51
84479 1 10
84479 91976 33
84505 82305 43
84531 83050 28
84557 83403 27
84583 83430 35
84633 83575 26
84677 83710 34
84703 84073 41
84729 84215 32
84755 84288 34
91976 91987 75
91987 91976 31
91987 1 27
0 2 4
0 82226 29
0 1 212
0 29926 53
0 39901 21
0 49876 29
0 54554 127
0 64529 16
0 74504 7
0 82225 12