#gt10.kmer27.(4320000.4330000).V30.E47.mincyc6.e1.0
#construct-flow-graph.py -o graphs-g10-w10000-k27-cyc/ -g 10 -w 10000 -k 27 --mincycles 1 --nreads 5 --readlength 1000 --distribution lognormal11 --pdf
#kmersize=27
#windowsize=10000
#acyclic=False
#mincycles=1
#distribution=lognormal11
#ngenomes=10
#nreads=5
#readlength=1000
#outdir=graphs-g10-w10000-k27-cyc/
#pdf=True
#erroreps=1.0
#unique source is 0, unique sink is 1
#genomes: GCA_000005845.2_ASM584v2.fna GCA_000006665.1_ASM666v1.fna GCA_000007445.1_ASM744v1.fna GCA_000008865.2_ASM886v2.fna GCA_000009565.2_ASM956v1.fna GCA_000010245.1_ASM1024v1.fna GCA_000010385.1_ASM1038v1.fna GCA_000010485.1_ASM1048v1.fna GCA_000010745.1_ASM1074v1.fna GCA_000010765.1_ASM1076v1.fna 
# ground truth paths, in the format 'weight node1 node2 node3 ... '
#T 41 0 2 5298 5843 5849 5850 5863 5890 5914 5916 5923 5850 5863 5890 5914 5916 5923 5849 5850 5863 6000 5890 5914 5916 5843 5849 5850 5863 5890 5914 5916 5923 5849 5850 5863 5890 5914 1 
#T 55 0 1 
#T 11 0 29638 1 
#T 3 0 39613 1 
#T 105 0 49588 1 
#T 41 0 52232 52241 2 5298 1 
#T 7 0 58011 52232 52241 1 
#T 7 0 74206 1 
#T 36 0 81927 81928 83013 83040 83469 83496 84181 1 
#T 213 0 81928 83013 84207 83040 83469 84233 83496 84181 91954 1 
# subpath constraints, in the format 'node1 node2 node3 ... '
# 0 subpath constraints for genome
#S 2 5298 
#S 2 5298 
#S 5914 1 
#S 5863 5890 5914 5916 5923 5850 5863 5890 5914 5916 5923 5849 5850 5863 6000 5890 5914 5916 5843 5849 5850 5863 5890 5914 5916 5923 5849 5850 5863 5890 5914 1 
#S 5914 1 
# 1 subpath constraints for genome
#S 0 1 
#S 0 1 
#S 0 1 
#S 0 1 
#S 0 1 
# 2 subpath constraints for genome
#S 0 29638 
#S 0 29638 
#S 0 29638 
#S 0 29638 
#S 0 29638 
# 3 subpath constraints for genome
#S 0 39613 
#S 0 39613 
#S 0 39613 
#S 0 39613 
#S 0 39613 
# 4 subpath constraints for genome
#S 0 49588 
#S 0 49588 
#S 0 49588 
#S 0 49588 
#S 0 49588 
# 5 subpath constraints for genome
#S 2 5298 
#S 2 5298 
#S 0 52232 52241 2 
#S 2 5298 
#S 0 52232 
# 6 subpath constraints for genome
#S 52241 1 
#S 52241 1 
#S 0 58011 52232 52241 1 
#S 52241 1 
#S 52241 1 
# 7 subpath constraints for genome
#S 0 74206 
#S 0 74206 
#S 0 74206 
#S 0 74206 
#S 0 74206 
# 8 subpath constraints for genome
#S 0 81927 81928 83013 
#S 0 81927 
#S 0 81927 
#S 0 81927 
#S 0 81927 
# 9 subpath constraints for genome
#S 83496 84181 91954 
#S 84181 91954 
#S 81928 83013 84207 83040 83469 84233 83496 84181 
#S 84181 91954 
#S 84181 91954 
47
2 5298 90
5298 1 53
5298 5843 36
5843 5849 75
5849 5850 162
5850 5863 208
5863 5890 163
5863 6000 51
5890 5914 223
5914 5916 143
5914 1 40
5916 5923 119
5916 5843 52
5923 5850 51
5923 5849 81
6000 5890 33
29638 1 10
39613 1 3
49588 1 114
52232 52241 58
52241 2 37
52241 1 11
58011 52232 9
74206 1 6
81927 81928 31
81928 83013 253
83013 83040 44
83013 84207 215
83040 83469 254
83469 83496 40
83469 84233 207
83496 84181 259
84181 1 28
84181 91954 204
84207 83040 225
84233 83496 219
91954 1 208
0 2 32
0 81928 229
0 1 60
0 29638 15
0 39613 5
0 49588 89
0 52232 39
0 58011 6
0 74206 5
0 81927 54