#gt10.kmer27.(4260000.4270000).V182.E251.mincyc3.e1.0
#construct-flow-graph.py -o graphs-g10-w10000-k27-cyc/ -g 10 -w 10000 -k 27 --mincycles 1 --nreads 5 --readlength 1000 --distribution lognormal11 --pdf
#kmersize=27
#windowsize=10000
#acyclic=False
#mincycles=1
#distribution=lognormal11
#ngenomes=10
#nreads=5
#readlength=1000
#outdir=graphs-g10-w10000-k27-cyc/
#pdf=True
#erroreps=1.0
#unique source is 0, unique sink is 1
#genomes: GCA_000005845.2_ASM584v2.fna GCA_000006665.1_ASM666v1.fna GCA_000007445.1_ASM744v1.fna GCA_000008865.2_ASM886v2.fna GCA_000009565.2_ASM956v1.fna GCA_000010245.1_ASM1024v1.fna GCA_000010385.1_ASM1038v1.fna GCA_000010485.1_ASM1048v1.fna GCA_000010745.1_ASM1074v1.fna GCA_000010765.1_ASM1076v1.fna 
# ground truth paths, in the format 'weight node1 node2 node3 ... '
#T 21 0 2 4356 4417 4444 4456 4483 4528 4573 4639 4696 4699 4834 4975 5002 5029 5092 5119 5122 5149 5161 5200 5230 5257 5383 5410 5828 5855 5984 6011 6017 6044 6071 6118 6185 6212 6275 6302 6311 6338 6348 6380 6386 6401 6437 6464 6491 6515 6542 6551 6578 6641 6668 6704 6743 6773 6806 6812 7047 7052 7079 7227 7268 7274 7301 7308 7335 7362 7389 7403 7451 7455 7482 7523 7550 7667 7694 7703 7748 7772 7799 7872 7922 7925 7952 7979 8006 8017 8063 8064 8105 8170 8197 8229 8279 8281 1 
#T 3 0 18901 18906 18901 18906 1 
#T 67 0 1 
#T 48 0 39895 1 
#T 55 0 49870 1 
#T 17 0 53460 2 4356 4417 4444 4456 4483 4528 4573 4639 4696 4699 4834 4975 5002 5029 5092 5119 5122 5149 5161 5200 5230 5257 5383 5410 5828 5855 5984 6011 6017 6044 6071 6118 6185 6212 6275 6302 6311 6338 6348 6380 6386 1 
#T 65 0 62681 1 
#T 14 0 4356 4417 66273 4444 4456 66299 4483 4528 66343 4573 4639 66399 4696 4699 66533 4834 4975 66559 5002 66585 5029 5092 66611 5119 5122 66637 5149 5161 66675 5200 5230 66701 5257 5383 66727 5410 5828 66753 5855 5984 66779 6011 6017 66805 6044 6071 66851 6118 6185 66877 6212 6275 66903 6302 6311 66929 6338 6348 66960 6380 6386 6401 66995 6437 6464 67021 6491 6515 67047 6542 6551 67073 6578 6641 67099 6668 6704 67137 6743 6773 67169 6806 6812 68813 7047 7052 68839 7079 7227 68879 7268 7274 68905 7301 7308 68931 7335 7362 68957 7389 7403 69004 7451 7455 69030 7482 7523 69056 7550 7667 69082 7694 7703 69126 7748 7772 69152 7799 7872 69201 7922 7925 69227 7952 7979 69253 8006 8017 69298 8063 8064 69338 8105 8170 69364 8197 8229 69413 8279 8281 71240 1 
#T 45 0 75499 75507 75579 75582 62681 75499 75507 77677 75579 75582 80576 80609 80636 80645 80675 80699 80726 80808 80838 80916 80943 80949 80976 80994 81021 81090 81135 81198 1 
#T 53 0 80576 80609 81227 80636 80645 81256 80675 80699 81282 80726 80808 81311 80838 80916 81337 80943 80949 81363 80976 80994 81389 81021 81090 81433 81135 81198 90785 1 
# subpath constraints, in the format 'node1 node2 node3 ... '
# 0 subpath constraints for genome
#S 2 4356 
#S 5092 5119 5122 5149 5161 5200 5230 5257 5383 5410 5828 5855 5984 6011 6017 6044 6071 6118 
#S 5230 5257 5383 5410 5828 5855 5984 6011 6017 6044 6071 6118 6185 6212 6275 
#S 4639 4696 4699 4834 4975 5002 5029 5092 5119 5122 5149 5161 5200 5230 5257 5383 5410 5828 
#S 8281 1 
# 1 subpath constraints for genome
#S 0 18901 
#S 0 18901 
#S 0 18901 18906 18901 
#S 0 18901 
#S 0 18901 
# 2 subpath constraints for genome
#S 0 1 
#S 0 1 
#S 0 1 
#S 0 1 
#S 0 1 
# 3 subpath constraints for genome
#S 0 39895 
#S 0 39895 
#S 0 39895 
#S 0 39895 
#S 0 39895 
# 4 subpath constraints for genome
#S 0 49870 
#S 0 49870 
#S 0 49870 
#S 0 49870 
#S 0 49870 
# 5 subpath constraints for genome
#S 2 4356 
#S 2 4356 
#S 4528 4573 4639 4696 4699 4834 4975 5002 5029 5092 5119 5122 5149 5161 5200 5230 5257 5383 5410 5828 
#S 2 4356 4417 4444 4456 4483 4528 4573 4639 4696 
#S 2 4356 
# 6 subpath constraints for genome
#S 62681 1 
#S 0 62681 1 
#S 0 62681 1 
#S 0 62681 1 
#S 0 62681 
# 7 subpath constraints for genome
#S 8281 71240 
#S 8281 71240 
#S 8281 71240 
#S 0 4356 
#S 0 4356 4417 66273 4444 4456 66299 4483 4528 66343 4573 4639 66399 4696 4699 66533 4834 4975 66559 5002 66585 5029 5092 66611 5119 5122 66637 
# 8 subpath constraints for genome
#S 75582 62681 75499 75507 77677 75579 75582 80576 
#S 0 75499 
#S 0 75499 
#S 75582 62681 75499 75507 77677 75579 75582 80576 
#S 75582 80576 
# 9 subpath constraints for genome
#S 81198 90785 
#S 81198 90785 
#S 81198 90785 
#S 81198 90785 
#S 81198 90785 
251
2 4356 48
4356 4417 41
4417 4444 30
4417 66273 11
4444 4456 56
4456 4483 36
4456 66299 16
4483 4528 39
4528 4573 41
4528 66343 19
4573 4639 43
4639 4696 39
4639 66399 12
4696 4699 52
4699 4834 37
4699 66533 17
4834 4975 39
4975 5002 39
4975 66559 18
5002 5029 37
5002 66585 14
5029 5092 47
5092 5119 36
5092 66611 13
5119 5122 43
5122 5149 44
5122 66637 18
5149 5161 63
5161 5200 26
5161 66675 15
5200 5230 64
5230 5257 40
5230 66701 13
5257 5383 41
5383 5410 40
5383 66727 16
5410 5828 60
5828 5855 35
5828 66753 12
5855 5984 65
5984 6011 44
5984 66779 12
6011 6017 52
6017 6044 50
6017 66805 22
6044 6071 47
6071 6118 40
6071 66851 16
6118 6185 56
6185 6212 45
6185 66877 10
6212 6275 44
6275 6302 37
6275 66903 21
6302 6311 47
6311 6338 45
6311 66929 15
6338 6348 54
6348 6380 33
6348 66960 18
6380 6386 50
6386 1 21
6386 6401 37
6401 6437 24
6401 66995 21
6437 6464 38
6464 6491 24
6464 67021 15
6491 6515 34
6515 6542 24
6515 67047 6
6542 6551 26
6551 6578 25
6551 67073 10
6578 6641 30
6641 6668 23
6641 67099 17
6668 6704 35
6704 6743 27
6704 67137 13
6743 6773 30
6773 6806 12
6773 67169 12
6806 6812 33
6812 7047 18
6812 68813 19
7047 7052 33
7052 7079 25
7052 68839 13
7079 7227 36
7227 7268 23
7227 68879 12
7268 7274 33
7274 7301 32
7274 68905 16
7301 7308 29
7308 7335 31
7308 68931 11
7335 7362 31
7362 7389 27
7362 68957 19
7389 7403 29
7403 7451 26
7403 69004 16
7451 7455 36
7455 7482 19
7455 69030 12
7482 7523 24
7523 7550 19
7523 69056 14
7550 7667 36
7667 7694 18
7667 69082 11
7694 7703 46
7703 7748 21
7703 69126 15
7748 7772 38
7772 7799 22
7772 69152 16
7799 7872 35
7872 7922 19
7872 69201 18
7922 7925 40
7925 7952 30
7925 69227 14
7952 7979 45
7979 8006 23
7979 69253 17
8006 8017 38
8017 8063 20
8017 69298 14
8063 8064 38
8064 8105 23
8064 69338 14
8105 8170 29
8170 8197 19
8170 69364 10
8197 8229 23
8229 8279 18
8229 69413 10
8279 8281 28
8281 1 21
8281 71240 16
18901 18906 5
18906 18901 5
18906 1 2
39895 1 50
49870 1 59
53460 2 16
62681 1 51
62681 75499 39
66273 4444 12
66299 4483 14
66343 4573 16
66399 4696 18
66533 4834 12
66559 5002 22
66585 5029 14
66611 5119 17
66637 5149 12
66675 5200 21
66701 5257 12
66727 5410 18
66753 5855 15
66779 6011 13
66805 6044 18
66851 6118 13
66877 6212 15
66903 6302 14
66929 6338 10
66960 6380 20
66995 6437 15
67021 6491 15
67047 6542 16
67073 6578 9
67099 6668 9
67137 6743 9
67169 6806 9
68813 7047 16
68839 7079 11
68879 7268 14
68905 7301 16
68931 7335 17
68957 7389 14
69004 7451 22
69030 7482 16
69056 7550 10
69082 7694 15
69126 7748 12
69152 7799 16
69201 7922 12
69227 7952 14
69253 8006 13
69298 8063 6
69338 8105 23
69364 8197 11
69413 8279 12
71240 1 14
75499 75507 90
75507 75579 37
75507 77677 48
75579 75582 92
75582 62681 38
75582 80576 37
77677 75579 40
80576 80609 69
80609 80636 43
80609 81227 53
80636 80645 78
80645 80675 48
80645 81256 45
80675 80699 109
80699 80726 46
80699 81282 57
80726 80808 98
80808 80838 42
80808 81311 58
80838 80916 96
80916 80943 55
80916 81337 64
80943 80949 106
80949 80976 59
80949 81363 54
80976 80994 99
80994 81021 49
80994 81389 48
81021 81090 82
81090 81135 49
81090 81433 48
81135 81198 116
81198 1 49
81198 90785 41
81227 80636 41
81256 80675 42
81282 80726 57
81311 80838 48
81337 80943 50
81363 80976 61
81389 81021 51
81433 81135 50
90785 1 61
0 2 19
0 80576 64
0 18901 4
0 1 66
0 39895 32
0 49870 49
0 53460 15
0 62681 68
0 4356 8
0 75499 33