#gt10.kmer27.(2100000.2110000).V38.E62.mincyc44.e1.0
#construct-flow-graph.py -o graphs-g10-w10000-k27-cyc/ -g 10 -w 10000 -k 27 --mincycles 1 --nreads 5 --readlength 1000 --distribution lognormal11 --pdf
#kmersize=27
#windowsize=10000
#acyclic=False
#mincycles=1
#distribution=lognormal11
#ngenomes=10
#nreads=5
#readlength=1000
#outdir=graphs-g10-w10000-k27-cyc/
#pdf=True
#erroreps=1.0
#unique source is 0, unique sink is 1
#genomes: GCA_000005845.2_ASM584v2.fna GCA_000006665.1_ASM666v1.fna GCA_000007445.1_ASM744v1.fna GCA_000008865.2_ASM886v2.fna GCA_000009565.2_ASM956v1.fna GCA_000010245.1_ASM1024v1.fna GCA_000010385.1_ASM1038v1.fna GCA_000010485.1_ASM1048v1.fna GCA_000010745.1_ASM1074v1.fna GCA_000010765.1_ASM1076v1.fna 
# ground truth paths, in the format 'weight node1 node2 node3 ... '
#T 14 0 2 7839 9976 1 
#T 9 0 13854 13854 13916 13956 13916 13956 1 
#T 17 0 1 
#T 10 0 39859 1 
#T 30 0 49834 1 
#T 23 0 51971 2 7839 1 
#T 21 0 61946 1 
#T 35 0 64121 64123 64124 64132 64214 64233 64242 64266 64308 64333 64336 64401 64121 64123 64124 64483 64490 64233 64242 64266 64586 64308 64333 64336 64661 64401 64121 64123 64214 64233 64242 64586 64308 64333 64401 64121 64123 64124 64132 64483 64490 1 
#T 11 0 81643 1 
#T 89 0 86186 86190 86201 86216 86243 86255 86186 86190 86201 86216 86243 86255 86186 86190 86308 86316 86322 86243 86255 86201 86216 86308 86316 86322 86243 86255 86186 86190 86316 86322 1 
# subpath constraints, in the format 'node1 node2 node3 ... '
# 0 subpath constraints for genome
#S 2 7839 
#S 2 7839 
#S 2 7839 9976 
#S 2 7839 
#S 2 7839 
# 1 subpath constraints for genome
#S 0 13854 
#S 13956 1 
#S 13956 1 
#S 13956 1 
#S 0 13854 
# 2 subpath constraints for genome
#S 0 1 
#S 0 1 
#S 0 1 
#S 0 1 
#S 0 1 
# 3 subpath constraints for genome
#S 0 39859 
#S 0 39859 
#S 0 39859 
#S 0 39859 
#S 0 39859 
# 4 subpath constraints for genome
#S 0 49834 
#S 0 49834 
#S 0 49834 
#S 0 49834 
#S 0 49834 
# 5 subpath constraints for genome
#S 2 7839 
#S 2 7839 
#S 2 7839 
#S 2 7839 
#S 2 7839 
# 6 subpath constraints for genome
#S 0 61946 
#S 0 61946 
#S 0 61946 
#S 0 61946 
#S 0 61946 
# 7 subpath constraints for genome
#S 64490 1 
#S 64490 1 
#S 64490 1 
#S 64490 1 
#S 64490 1 
# 8 subpath constraints for genome
#S 0 81643 
#S 0 81643 
#S 0 81643 
#S 0 81643 
#S 0 81643 
# 9 subpath constraints for genome
#S 86322 1 
#S 86216 86243 86255 86186 86190 86201 86216 86243 86255 86186 86190 86308 86316 86322 86243 86255 86201 86216 86308 86316 86322 86243 86255 86186 86190 86316 86322 1 
#S 0 86186 
#S 0 86186 
#S 86255 86186 86190 86316 86322 1 
62
2 7839 37
7839 1 29
7839 9976 12
9976 1 18
13854 13854 10
13854 13916 13
13916 13956 21
13956 13916 6
13956 1 11
39859 1 9
49834 1 33
51971 2 31
61946 1 27
64121 64123 141
64123 64124 110
64123 64214 36
64124 64132 75
64124 64483 22
64132 64214 41
64132 64483 36
64214 64233 70
64233 64242 102
64242 64266 65
64242 64586 28
64266 64308 34
64266 64586 47
64308 64333 118
64333 64336 57
64333 64401 34
64336 64401 38
64336 64661 40
64401 64121 99
64483 64490 78
64490 64233 33
64490 1 23
64586 64308 71
64661 64401 36
81643 1 15
86186 86190 349
86190 86201 192
86190 86308 98
86190 86316 82
86201 86216 287
86216 86308 81
86216 86243 183
86243 86255 381
86255 86186 247
86255 86201 88
86308 86316 219
86316 86322 259
86322 86243 181
86322 1 87
0 2 16
0 13854 10
0 1 21
0 39859 13
0 49834 33
0 51971 15
0 61946 22
0 64121 35
0 81643 6
0 86186 82