#gt10.kmer27.(3870000.3880000).V93.E133.mincyc100.e1.0
#construct-flow-graph.py -o graphs-g10-w10000-k27-cyc/ -g 10 -w 10000 -k 27 --mincycles 1 --nreads 5 --readlength 1000 --distribution lognormal11 --pdf
#kmersize=27
#windowsize=10000
#acyclic=False
#mincycles=1
#distribution=lognormal11
#ngenomes=10
#nreads=5
#readlength=1000
#outdir=graphs-g10-w10000-k27-cyc/
#pdf=True
#erroreps=1.0
#unique source is 0, unique sink is 1
#genomes: GCA_000005845.2_ASM584v2.fna GCA_000006665.1_ASM666v1.fna GCA_000007445.1_ASM744v1.fna GCA_000008865.2_ASM886v2.fna GCA_000009565.2_ASM956v1.fna GCA_000010245.1_ASM1024v1.fna GCA_000010385.1_ASM1038v1.fna GCA_000010485.1_ASM1048v1.fna GCA_000010745.1_ASM1074v1.fna GCA_000010765.1_ASM1076v1.fna 
# ground truth paths, in the format 'weight node1 node2 node3 ... '
#T 20 0 7585 7586 7597 7599 1 
#T 107 0 7586 7597 7599 19937 1 
#T 19 0 1 
#T 50 0 30682 30884 30911 31049 31085 31480 31507 31824 31851 32016 32068 32259 33759 33767 33821 33833 33881 33947 33974 33983 34034 34049 34133 34136 34187 34192 34259 34313 34347 34349 34434 34490 34558 34560 34601 34634 34661 34712 34715 34802 34838 34898 34947 1 
#T 56 0 44338 7585 7586 7597 48039 48040 48039 48040 48039 48040 1 
#T 39 0 51460 52608 51460 52622 52649 52653 52680 52715 52853 52906 52933 53010 52608 51460 52622 54385 52649 52653 54411 52680 52715 54548 52853 52906 54574 52933 53010 1 
#T 26 0 69601 1 
#T 15 0 79576 1 
#T 24 0 33759 33767 80861 33821 33833 80908 33881 33947 80934 33974 33983 80984 34034 34049 81067 34133 34136 81117 34187 34192 81183 34259 34313 81216 34347 34349 81300 34434 34490 81367 34558 34560 81407 34601 34634 81433 34661 81483 34712 34715 81569 34802 34838 81628 34898 34947 87044 87065 87044 87065 30682 30884 87608 30911 31049 87643 31085 31480 87669 31507 31824 87695 31851 32016 87746 32068 32259 1 
#T 24 0 97721 1 
# subpath constraints, in the format 'node1 node2 node3 ... '
# 0 subpath constraints for genome
#S 0 7585 7586 7597 7599 1 
#S 0 7585 
#S 7599 1 
#S 0 7585 
#S 7599 1 
# 1 subpath constraints for genome
#S 0 7586 
#S 7599 19937 
#S 0 7586 
#S 7599 19937 
#S 7599 19937 
# 2 subpath constraints for genome
#S 0 1 
#S 0 1 
#S 0 1 
#S 0 1 
#S 0 1 
# 3 subpath constraints for genome
#S 34947 1 
#S 34947 1 
#S 34947 1 
#S 34947 1 
#S 34947 1 
# 4 subpath constraints for genome
#S 48040 1 
#S 0 44338 
#S 7597 48039 
#S 0 44338 
#S 48040 1 
# 5 subpath constraints for genome
#S 0 51460 52608 
#S 
#S 53010 1 
#S 52680 52715 52853 52906 52933 53010 52608 
#S 53010 1 
# 6 subpath constraints for genome
#S 0 69601 
#S 0 69601 
#S 0 69601 
#S 0 69601 
#S 0 69601 
# 7 subpath constraints for genome
#S 0 79576 
#S 0 79576 
#S 0 79576 
#S 0 79576 
#S 0 79576 
# 8 subpath constraints for genome
#S 30682 30884 87608 30911 31049 87643 31085 31480 87669 31507 31824 
#S 33881 33947 80934 33974 33983 80984 34034 34049 81067 34133 34136 81117 34187 34192 81183 34259 34313 81216 34347 34349 81300 34434 34490 81367 34558 34560 81407 34601 34634 81433 34661 81483 34712 34715 81569 34802 34838 81628 
#S 34947 87044 
#S 34661 81483 34712 34715 81569 34802 34838 81628 34898 34947 87044 
#S 0 33759 33767 80861 33821 33833 80908 33881 33947 80934 33974 33983 80984 34034 34049 81067 34133 34136 81117 34187 34192 81183 34259 34313 81216 34347 34349 81300 34434 34490 81367 34558 34560 81407 34601 34634 81433 34661 81483 
# 9 subpath constraints for genome
#S 0 97721 
#S 0 97721 
#S 0 97721 
#S 0 97721 
#S 0 97721 
133
7585 7586 79
7586 7597 188
7597 7599 151
7597 48039 64
7599 1 18
7599 19937 109
19937 1 104
30682 30884 79
30884 30911 55
30884 87608 22
30911 31049 75
31049 31085 44
31049 87643 25
31085 31480 70
31480 31507 48
31480 87669 24
31507 31824 57
31824 31851 50
31824 87695 20
31851 32016 82
32016 32068 49
32016 87746 27
32068 32259 82
32259 1 25
32259 33759 54
33759 33767 83
33767 33821 55
33767 80861 18
33821 33833 68
33833 33881 56
33833 80908 27
33881 33947 57
33947 33974 53
33947 80934 27
33974 33983 69
33983 34034 50
33983 80984 19
34034 34049 78
34049 34133 54
34049 81067 21
34133 34136 81
34136 34187 63
34136 81117 28
34187 34192 74
34192 34259 55
34192 81183 27
34259 34313 80
34313 34347 40
34313 81216 23
34347 34349 72
34349 34434 66
34349 81300 31
34434 34490 72
34490 34558 53
34490 81367 27
34558 34560 84
34560 34601 61
34560 81407 25
34601 34634 83
34634 34661 37
34634 81433 30
34661 34712 53
34661 81483 27
34712 34715 73
34715 34802 51
34715 81569 25
34802 34838 71
34838 34898 56
34838 81628 29
34898 34947 75
34947 1 40
34947 87044 19
44338 7585 56
48039 48040 159
48040 48039 105
48040 1 51
51460 52608 32
51460 52622 77
52608 51460 78
52622 52649 38
52622 54385 39
52649 52653 66
52653 52680 38
52653 54411 28
52680 52715 84
52715 52853 37
52715 54548 41
52853 52906 66
52906 52933 40
52906 54574 40
52933 53010 62
53010 52608 39
53010 1 38
54385 52649 42
54411 52680 34
54548 52853 41
54574 52933 48
69601 1 29
79576 1 15
80861 33821 26
80908 33881 17
80934 33974 20
80984 34034 33
81067 34133 20
81117 34187 17
81183 34259 18
81216 34347 21
81300 34434 22
81367 34558 24
81407 34601 23
81433 34661 14
81483 34712 27
81569 34802 19
81628 34898 26
87044 87065 52
87065 87044 30
87065 30682 21
87608 30911 21
87643 31085 21
87669 31507 24
87695 31851 33
87746 32068 27
97721 1 26
0 7585 27
0 7586 112
0 1 18
0 30682 46
0 44338 59
0 51460 38
0 69601 26
0 79576 12
0 33759 28
0 97721 27