#gt10.kmer27.(2280000.2290000).V109.E152.mincyc3.e1.0
#construct-flow-graph.py -o graphs-g10-w10000-k27-cyc/ -g 10 -w 10000 -k 27 --mincycles 1 --nreads 5 --readlength 1000 --distribution lognormal11 --pdf
#kmersize=27
#windowsize=10000
#acyclic=False
#mincycles=1
#distribution=lognormal11
#ngenomes=10
#nreads=5
#readlength=1000
#outdir=graphs-g10-w10000-k27-cyc/
#pdf=True
#erroreps=1.0
#unique source is 0, unique sink is 1
#genomes: GCA_000005845.2_ASM584v2.fna GCA_000006665.1_ASM666v1.fna GCA_000007445.1_ASM744v1.fna GCA_000008865.2_ASM886v2.fna GCA_000009565.2_ASM956v1.fna GCA_000010245.1_ASM1024v1.fna GCA_000010385.1_ASM1038v1.fna GCA_000010485.1_ASM1048v1.fna GCA_000010745.1_ASM1074v1.fna GCA_000010765.1_ASM1076v1.fna 
# ground truth paths, in the format 'weight node1 node2 node3 ... '
#T 21 0 2 6642 9976 1 
#T 27 0 11008 11034 11095 11106 11194 11261 11342 11343 11392 11440 11467 11483 11621 11657 11684 11712 11898 11948 11975 11994 12087 12112 12397 12405 12515 12522 12526 12532 12596 12604 12515 12522 12526 16631 12596 12604 16713 16883 16902 16932 17017 17029 17056 17196 17232 17337 17397 17401 17451 17454 17481 17522 17549 17575 17632 17637 17702 17715 17742 17746 17773 17787 17814 17839 17924 17973 18009 18021 18063 18093 18778 18781 1 
#T 26 0 1 
#T 89 0 39880 1 
#T 37 0 49855 1 
#T 81 0 53189 2 6642 1 
#T 34 0 63164 1 
#T 5 0 73139 1 
#T 51 0 76626 11008 11034 76686 11095 11106 76773 11194 11261 76853 11342 11343 76901 11392 11440 76927 11467 11483 77053 11621 11657 77079 11684 11712 77263 11898 11948 77289 11975 11994 77381 12087 12112 77666 12397 12405 12522 12526 12532 16631 12596 12604 16713 79681 16883 16902 79710 16932 79794 17017 17029 79820 17056 17196 79855 17232 17337 79914 17397 17401 79963 17451 17454 79989 17481 17522 80015 17549 17575 80071 17632 17637 80135 17702 17715 80161 17742 17746 80187 17773 17787 80213 17814 17839 80297 17924 17973 80332 18009 18021 80373 18063 18093 80970 18778 18781 82141 1 
#T 23 0 92116 1 
# subpath constraints, in the format 'node1 node2 node3 ... '
# 0 subpath constraints for genome
#S 2 6642 
#S 2 6642 
#S 2 6642 
#S 2 6642 
#S 6642 9976 
# 1 subpath constraints for genome
#S 12604 12515 12522 12526 16631 12596 12604 16713 
#S 12604 12515 
#S 12604 12515 12522 12526 16631 12596 12604 16713 16883 16902 
#S 11261 11342 11343 11392 11440 11467 11483 11621 11657 11684 11712 11898 11948 11975 11994 12087 12112 12397 
#S 0 11008 11034 11095 
# 2 subpath constraints for genome
#S 0 1 
#S 0 1 
#S 0 1 
#S 0 1 
#S 0 1 
# 3 subpath constraints for genome
#S 0 39880 
#S 0 39880 
#S 0 39880 
#S 0 39880 
#S 0 39880 
# 4 subpath constraints for genome
#S 0 49855 
#S 0 49855 
#S 0 49855 
#S 0 49855 
#S 0 49855 
# 5 subpath constraints for genome
#S 2 6642 
#S 2 6642 
#S 2 6642 
#S 2 6642 
#S 2 6642 
# 6 subpath constraints for genome
#S 0 63164 
#S 0 63164 
#S 0 63164 
#S 0 63164 
#S 0 63164 
# 7 subpath constraints for genome
#S 0 73139 
#S 0 73139 
#S 0 73139 
#S 0 73139 
#S 0 73139 
# 8 subpath constraints for genome
#S 0 76626 
#S 18063 18093 80970 18778 18781 82141 
#S 11261 76853 11342 11343 76901 11392 11440 76927 11467 11483 77053 11621 11657 77079 11684 11712 77263 11898 11948 77289 11975 11994 77381 12087 12112 77666 
#S 17337 79914 17397 17401 79963 17451 17454 79989 17481 17522 80015 17549 17575 80071 17632 17637 80135 17702 17715 80161 17742 17746 80187 17773 17787 80213 17814 17839 80297 17924 17973 80332 18009 18021 80373 18063 18093 80970 
#S 0 76626 
# 9 subpath constraints for genome
#S 0 92116 
#S 0 92116 
#S 0 92116 
#S 0 92116 
#S 0 92116 
152
2 6642 81
6642 1 98
6642 9976 24
9976 1 20
11008 11034 73
11034 11095 27
11034 76686 55
11095 11106 84
11106 11194 21
11106 76773 50
11194 11261 89
11261 11342 30
11261 76853 50
11342 11343 84
11343 11392 39
11343 76901 51
11392 11440 65
11440 11467 28
11440 76927 56
11467 11483 85
11483 11621 29
11483 77053 59
11621 11657 72
11657 11684 23
11657 77079 51
11684 11712 96
11712 11898 35
11712 77263 69
11898 11948 74
11948 11975 20
11948 77289 54
11975 11994 65
11994 12087 26
11994 77381 47
12087 12112 86
12112 12397 31
12112 77666 50
12397 12405 81
12405 12515 30
12405 12522 66
12515 12522 46
12522 12526 115
12526 12532 82
12526 16631 24
12532 12596 26
12532 16631 52
12596 12604 111
12604 12515 25
12604 16713 60
16631 12596 83
16713 16883 17
16713 79681 63
16883 16902 86
16902 16932 20
16902 79710 48
16932 17017 23
16932 79794 51
17017 17029 86
17029 17056 29
17029 79820 47
17056 17196 93
17196 17232 20
17196 79855 46
17232 17337 66
17337 17397 27
17337 79914 54
17397 17401 72
17401 17451 17
17401 79963 46
17451 17454 91
17454 17481 30
17454 79989 48
17481 17522 73
17522 17549 21
17522 80015 51
17549 17575 83
17575 17632 24
17575 80071 47
17632 17637 75
17637 17702 33
17637 80135 48
17702 17715 73
17715 17742 25
17715 80161 51
17742 17746 88
17746 17773 16
17746 80187 52
17773 17787 91
17787 17814 31
17787 80213 63
17814 17839 79
17839 17924 27
17839 80297 53
17924 17973 80
17973 18009 24
17973 80332 46
18009 18021 79
18021 18063 23
18021 80373 52
18063 18093 90
18093 18778 28
18093 80970 59
18778 18781 83
18781 1 23
18781 82141 50
39880 1 92
49855 1 42
53189 2 89
63164 1 34
73139 1 4
76626 11008 54
76686 11095 35
76773 11194 37
76853 11342 62
76901 11392 52
76927 11467 51
77053 11621 41
77079 11684 68
77263 11898 51
77289 11975 42
77381 12087 50
77666 12397 58
79681 16883 66
79710 16932 53
79794 17017 63
79820 17056 46
79855 17232 57
79914 17397 41
79963 17451 50
79989 17481 61
80015 17549 46
80071 17632 57
80135 17702 55
80161 17742 48
80187 17773 49
80213 17814 57
80297 17924 58
80332 18009 66
80373 18063 43
80970 18778 55
82141 1 57
92116 1 14
0 2 21
0 11008 20
0 1 26
0 39880 112
0 49855 32
0 53189 96
0 63164 23
0 73139 15
0 76626 50
0 92116 22