#gt10.kmer27.(1650000.1660000).V32.E51.mincyc12.e1.0
#construct-flow-graph.py -o graphs-g10-w10000-k27-cyc/ -g 10 -w 10000 -k 27 --mincycles 1 --nreads 5 --readlength 1000 --distribution lognormal11 --pdf
#kmersize=27
#windowsize=10000
#acyclic=False
#mincycles=1
#distribution=lognormal11
#ngenomes=10
#nreads=5
#readlength=1000
#outdir=graphs-g10-w10000-k27-cyc/
#pdf=True
#erroreps=1.0
#unique source is 0, unique sink is 1
#genomes: GCA_000005845.2_ASM584v2.fna GCA_000006665.1_ASM666v1.fna GCA_000007445.1_ASM744v1.fna GCA_000008865.2_ASM886v2.fna GCA_000009565.2_ASM956v1.fna GCA_000010245.1_ASM1024v1.fna GCA_000010385.1_ASM1038v1.fna GCA_000010485.1_ASM1048v1.fna GCA_000010745.1_ASM1074v1.fna GCA_000010765.1_ASM1076v1.fna 
# ground truth paths, in the format 'weight node1 node2 node3 ... '
#T 20 0 2 2306 2333 8262 9976 1 
#T 24 0 14282 14296 14323 14359 14398 14407 14425 14282 14296 14323 14359 14455 14425 14282 14296 14534 14323 14359 14455 14398 14407 1 
#T 23 0 1 
#T 57 0 32764 32777 32764 32777 1 
#T 74 0 43529 43532 43534 43569 43589 43616 43529 43532 43569 43589 43616 43529 43532 43569 43589 43729 43732 43616 43529 43532 43534 43729 43732 1 
#T 5 0 51265 2 2306 51291 2333 8262 1 
#T 17 0 61266 1 
#T 109 0 71241 1 
#T 126 0 81216 1 
#T 4 0 91191 1 
# subpath constraints, in the format 'node1 node2 node3 ... '
# 0 subpath constraints for genome
#S 2 2306 2333 8262 
#S 2 2306 
#S 2333 8262 
#S 2333 8262 
#S 2333 8262 
# 1 subpath constraints for genome
#S 0 14282 
#S 14407 1 
#S 14407 1 
#S 0 14282 
#S 14407 1 
# 2 subpath constraints for genome
#S 0 1 
#S 0 1 
#S 0 1 
#S 0 1 
#S 0 1 
# 3 subpath constraints for genome
#S 32777 1 
#S 32777 32764 32777 1 
#S 0 32764 
#S 32777 1 
#S 32777 1 
# 4 subpath constraints for genome
#S 43732 1 
#S 0 43529 
#S 43732 1 
#S 43732 1 
#S 43532 43569 43589 43729 43732 43616 43529 43532 43534 43729 43732 1 
# 5 subpath constraints for genome
#S 0 51265 
#S 2333 8262 
#S 2 2306 
#S 2 2306 
#S 2333 8262 
# 6 subpath constraints for genome
#S 0 61266 
#S 0 61266 
#S 0 61266 
#S 0 61266 
#S 0 61266 
# 7 subpath constraints for genome
#S 0 71241 
#S 0 71241 
#S 0 71241 
#S 0 71241 
#S 0 71241 
# 8 subpath constraints for genome
#S 0 81216 
#S 0 81216 
#S 0 81216 
#S 0 81216 
#S 0 81216 
# 9 subpath constraints for genome
#S 0 91191 
#S 0 91191 
#S 0 91191 
#S 0 91191 
#S 0 91191 
51
2 2306 27
2306 2333 20
2306 51291 7
2333 8262 31
8262 1 7
8262 9976 16
9976 1 16
14282 14296 78
14296 14323 53
14296 14534 25
14323 14359 63
14359 14398 15
14359 14455 46
14398 14407 53
14407 14425 22
14407 1 23
14425 14282 47
14455 14425 23
14455 14398 22
14534 14323 20
32764 32777 97
32777 32764 62
32777 1 54
43529 43532 296
43532 43534 153
43532 43569 138
43534 43569 78
43534 43729 76
43569 43589 229
43589 43616 159
43589 43729 80
43616 43529 219
43729 43732 132
43732 43616 75
43732 1 96
51265 2 2
51291 2333 5
61266 1 12
71241 1 119
81216 1 141
91191 1 1
0 2 15
0 14282 25
0 1 33
0 32764 59
0 43529 68
0 51265 5
0 61266 14
0 71241 128
0 81216 145
0 91191 6