#gt10.kmer27.(2310000.2320000).V121.E170.mincyc18.e1.0
#construct-flow-graph.py -o graphs-g10-w10000-k27-cyc/ -g 10 -w 10000 -k 27 --mincycles 1 --nreads 5 --readlength 1000 --distribution lognormal11 --pdf
#kmersize=27
#windowsize=10000
#acyclic=False
#mincycles=1
#distribution=lognormal11
#ngenomes=10
#nreads=5
#readlength=1000
#outdir=graphs-g10-w10000-k27-cyc/
#pdf=True
#erroreps=1.0
#unique source is 0, unique sink is 1
#genomes: GCA_000005845.2_ASM584v2.fna GCA_000006665.1_ASM666v1.fna GCA_000007445.1_ASM744v1.fna GCA_000008865.2_ASM886v2.fna GCA_000009565.2_ASM956v1.fna GCA_000010245.1_ASM1024v1.fna GCA_000010385.1_ASM1038v1.fna GCA_000010485.1_ASM1048v1.fna GCA_000010745.1_ASM1074v1.fna GCA_000010765.1_ASM1076v1.fna 
# ground truth paths, in the format 'weight node1 node2 node3 ... '
#T 12 0 2 6642 6883 6886 6883 6886 1 
#T 56 0 9973 9984 10187 10197 11193 11199 11226 11235 11307 11329 11361 11388 11391 11658 11707 12252 12415 12442 13075 13102 13183 13210 13286 13313 13866 13893 13942 14092 14155 14206 14272 14350 14368 14563 14614 14828 14870 14907 14910 15730 15734 15761 15777 15894 15920 15947 15970 16942 16956 17104 17109 17143 17259 17286 17400 17427 17712 17934 17961 18042 18057 18240 18440 19947 1 
#T 64 0 24182 24188 24182 24188 24182 24188 24182 24188 1 
#T 59 0 1 
#T 20 0 6886 49848 1 
#T 3 0 53182 2 6642 1 
#T 71 0 56823 56862 56889 56891 57142 57218 57220 57262 57265 56823 56862 57458 56889 56891 57707 57142 57782 57218 57220 57823 57262 57265 1 
#T 16 0 73081 1 
#T 162 0 73596 9973 9984 73798 10187 10197 74289 11193 11199 74315 11226 11235 74386 11307 11329 74417 11361 74443 11388 11391 74709 11658 11707 75541 12252 12415 75567 12442 13075 75593 13102 13183 75619 13210 13286 75645 13313 13866 75671 13893 13942 75820 14092 14155 75870 14206 14272 75947 14350 14368 76141 14563 14614 76457 14828 14870 76493 14907 14910 76610 15730 15734 76636 15761 15777 76752 15894 15920 76778 15947 15970 79556 16942 16956 79703 17104 17109 79736 17143 17259 79762 17286 17400 79788 17427 17712 80009 17934 17961 80089 18042 18057 80271 18240 18440 1 
#T 28 0 90246 1 
# subpath constraints, in the format 'node1 node2 node3 ... '
# 0 subpath constraints for genome
#S 2 6642 
#S 6886 1 
#S 2 6642 
#S 2 6642 
#S 2 6642 
# 1 subpath constraints for genome
#S 14910 15730 15734 15761 15777 15894 15920 15947 15970 16942 
#S 14870 14907 14910 15730 15734 15761 15777 15894 
#S 18440 19947 
#S 10197 11193 11199 11226 11235 11307 11329 11361 11388 11391 11658 11707 12252 
#S 17712 17934 17961 18042 18057 18240 18440 19947 
# 2 subpath constraints for genome
#S 24188 1 
#S 24188 1 
#S 0 24182 
#S 0 24182 
#S 24188 1 
# 3 subpath constraints for genome
#S 0 1 
#S 0 1 
#S 0 1 
#S 0 1 
#S 0 1 
# 4 subpath constraints for genome
#S 0 6886 
#S 0 6886 
#S 0 6886 
#S 0 6886 
#S 0 6886 49848 
# 5 subpath constraints for genome
#S 2 6642 
#S 0 53182 
#S 2 6642 
#S 2 6642 
#S 2 6642 
# 6 subpath constraints for genome
#S 0 56823 56862 56889 56891 57142 57218 57220 57262 57265 56823 56862 57458 56889 56891 
#S 57142 57218 57220 57262 57265 56823 56862 57458 56889 56891 57707 57142 57782 57218 57220 57823 57262 57265 1 
#S 57265 1 
#S 0 56823 56862 56889 56891 57142 57218 57220 57262 57265 56823 
#S 57265 1 
# 7 subpath constraints for genome
#S 0 73081 
#S 0 73081 
#S 0 73081 
#S 0 73081 
#S 0 73081 
# 8 subpath constraints for genome
#S 14368 76141 14563 14614 76457 14828 14870 76493 14907 14910 76610 15730 15734 76636 15761 15777 76752 15894 15920 76778 15947 15970 79556 
#S 14368 76141 14563 14614 76457 14828 14870 76493 14907 14910 76610 15730 15734 76636 15761 15777 76752 15894 15920 76778 15947 15970 79556 
#S 15970 79556 
#S 11707 75541 12252 12415 75567 12442 13075 
#S 12252 12415 75567 12442 13075 75593 13102 13183 75619 13210 13286 75645 13313 13866 
# 9 subpath constraints for genome
#S 0 90246 
#S 0 90246 
#S 0 90246 
#S 0 90246 
#S 0 90246 
170
2 6642 15
6642 1 7
6642 6883 12
6883 6886 19
6886 6883 11
6886 1 21
6886 49848 17
9973 9984 235
9984 10187 61
9984 73798 173
10187 10197 214
10197 11193 42
10197 74289 153
11193 11199 216
11199 11226 49
11199 74315 158
11226 11235 215
11235 11307 65
11235 74386 160
11307 11329 210
11329 11361 58
11329 74417 161
11361 11388 48
11361 74443 169
11388 11391 230
11391 11658 64
11391 74709 146
11658 11707 218
11707 12252 67
11707 75541 158
12252 12415 210
12415 12442 59
12415 75567 165
12442 13075 221
13075 13102 51
13075 75593 150
13102 13183 218
13183 13210 56
13183 75619 156
13210 13286 201
13286 13313 54
13286 75645 149
13313 13866 233
13866 13893 66
13866 75671 155
13893 13942 217
13942 14092 53
13942 75820 184
14092 14155 217
14155 14206 48
14155 75870 140
14206 14272 220
14272 14350 68
14272 75947 177
14350 14368 253
14368 14563 56
14368 76141 149
14563 14614 236
14614 14828 67
14614 76457 146
14828 14870 187
14870 14907 63
14870 76493 153
14907 14910 206
14910 15730 64
14910 76610 163
15730 15734 211
15734 15761 55
15734 76636 146
15761 15777 188
15777 15894 56
15777 76752 142
15894 15920 232
15920 15947 77
15920 76778 155
15947 15970 229
15970 16942 49
15970 79556 150
16942 16956 221
16956 17104 50
16956 79703 178
17104 17109 218
17109 17143 54
17109 79736 174
17143 17259 249
17259 17286 65
17259 79762 153
17286 17400 213
17400 17427 58
17400 79788 166
17427 17712 206
17712 17934 60
17712 80009 160
17934 17961 206
17961 18042 56
17961 80089 169
18042 18057 225
18057 18240 70
18057 80271 141
18240 18440 206
18440 1 164
18440 19947 57
19947 1 58
24182 24188 287
24188 24182 181
24188 1 68
49848 1 21
53182 2 3
56823 56862 154
56862 56889 78
56862 57458 52
56889 56891 132
56891 57142 84
56891 57707 86
57142 57218 61
57142 57782 64
57218 57220 143
57220 57262 77
57220 57823 86
57262 57265 120
57265 56823 82
57265 1 72
57458 56889 74
57707 57142 72
57782 57218 87
57823 57262 81
73081 1 13
73596 9973 176
73798 10187 171
74289 11193 155
74315 11226 167
74386 11307 138
74417 11361 185
74443 11388 163
74709 11658 167
75541 12252 159
75567 12442 157
75593 13102 141
75619 13210 144
75645 13313 175
75671 13893 156
75820 14092 165
75870 14206 141
75947 14350 151
76141 14563 151
76457 14828 161
76493 14907 161
76610 15730 164
76636 15761 163
76752 15894 152
76778 15947 151
79556 16942 149
79703 17104 144
79736 17143 154
79762 17286 143
79788 17427 167
80009 17934 155
80089 18042 168
80271 18240 168
90246 1 24
0 2 15
0 9973 55
0 24182 83
0 1 71
0 6886 19
0 53182 3
0 56823 62
0 73081 15
0 73596 148
0 90246 28