#gt10.kmer27.(3940000.3950000).V86.E123.mincyc100.e1.0
#construct-flow-graph.py -o graphs-g10-w10000-k27-cyc/ -g 10 -w 10000 -k 27 --mincycles 1 --nreads 5 --readlength 1000 --distribution lognormal11 --pdf
#kmersize=27
#windowsize=10000
#acyclic=False
#mincycles=1
#distribution=lognormal11
#ngenomes=10
#nreads=5
#readlength=1000
#outdir=graphs-g10-w10000-k27-cyc/
#pdf=True
#erroreps=1.0
#unique source is 0, unique sink is 1
#genomes: GCA_000005845.2_ASM584v2.fna GCA_000006665.1_ASM666v1.fna GCA_000007445.1_ASM744v1.fna GCA_000008865.2_ASM886v2.fna GCA_000009565.2_ASM956v1.fna GCA_000010245.1_ASM1024v1.fna GCA_000010385.1_ASM1038v1.fna GCA_000010485.1_ASM1048v1.fna GCA_000010745.1_ASM1074v1.fna GCA_000010765.1_ASM1076v1.fna 
# ground truth paths, in the format 'weight node1 node2 node3 ... '
#T 20 0 1443 1515 1542 2008 2035 2784 2847 3339 3366 3369 3583 3656 3683 3761 3788 3815 3847 3942 3990 4219 4257 4889 4916 5152 5179 5810 5837 6203 6230 6609 6696 6807 1 
#T 87 0 1 
#T 20 0 29926 1 
#T 22 0 39901 1 
#T 30 0 41872 1443 1515 41898 1542 2008 41924 2035 2784 41986 2847 3339 42012 3366 3369 42317 3583 3656 42343 3683 3761 42369 3788 3815 42400 3847 3942 42447 3990 4219 42484 4257 4889 42510 4916 5152 42536 5179 5810 42562 5837 6203 42588 6230 6609 42768 6696 6807 45221 1 
#T 17 0 55196 1 
#T 100 0 60313 60324 60335 60340 60384 60390 60417 60438 60465 60492 60497 60500 60554 60567 60595 60622 60626 60639 60653 60667 60711 60768 60313 60324 60335 60340 60827 60384 60390 60864 60417 60438 60465 60890 60492 60497 60554 60567 60595 60972 60622 60626 60653 60667 61041 60711 60768 60324 60335 60827 60384 60390 60417 60438 61141 60465 60492 60497 60500 60567 60595 60622 60626 60639 1 
#T 34 0 73309 73310 73309 73310 73309 73310 73309 73310 73309 73310 1 
#T 7 0 84703 1 
#T 31 0 94678 1 
# subpath constraints, in the format 'node1 node2 node3 ... '
# 0 subpath constraints for genome
#S 1542 2008 2035 2784 
#S 4257 4889 4916 5152 5179 5810 
#S 5179 5810 5837 6203 6230 6609 
#S 4257 4889 4916 5152 5179 5810 
#S 6807 1 
# 1 subpath constraints for genome
#S 0 1 
#S 0 1 
#S 0 1 
#S 0 1 
#S 0 1 
# 2 subpath constraints for genome
#S 0 29926 
#S 0 29926 
#S 0 29926 
#S 0 29926 
#S 0 29926 
# 3 subpath constraints for genome
#S 0 39901 
#S 0 39901 
#S 0 39901 
#S 0 39901 
#S 
# 4 subpath constraints for genome
#S 6696 6807 45221 
#S 1542 2008 41924 2035 2784 
#S 6807 45221 
#S 3366 3369 42317 3583 3656 42343 3683 3761 42369 3788 3815 42400 3847 3942 42447 3990 4219 42484 4257 4889 
#S 0 41872 
# 5 subpath constraints for genome
#S 0 55196 
#S 0 55196 
#S 0 55196 
#S 0 55196 
#S 0 55196 
# 6 subpath constraints for genome
#S 0 60313 
#S 0 60313 
#S 0 60313 
#S 60639 1 
#S 60639 1 
# 7 subpath constraints for genome
#S 0 73309 
#S 0 73309 
#S 0 73309 
#S 73310 1 
#S 0 73309 
# 8 subpath constraints for genome
#S 0 84703 
#S 0 84703 
#S 0 84703 
#S 0 84703 
#S 0 84703 
# 9 subpath constraints for genome
#S 0 94678 
#S 0 94678 
#S 0 94678 
#S 0 94678 
#S 0 94678 
123
1443 1515 46
1515 1542 20
1515 41898 27
1542 2008 53
2008 2035 16
2008 41924 25
2035 2784 51
2784 2847 16
2784 41986 35
2847 3339 59
3339 3366 23
3339 42012 38
3366 3369 46
3369 3583 29
3369 42317 35
3583 3656 56
3656 3683 16
3656 42343 39
3683 3761 63
3761 3788 22
3761 42369 23
3788 3815 53
3815 3847 24
3815 42400 26
3847 3942 46
3942 3990 16
3942 42447 28
3990 4219 45
4219 4257 22
4219 42484 31
4257 4889 43
4889 4916 17
4889 42510 34
4916 5152 48
5152 5179 20
5152 42536 21
5179 5810 46
5810 5837 18
5810 42562 24
5837 6203 36
6203 6230 21
6203 42588 33
6230 6609 65
6609 6696 21
6609 42768 26
6696 6807 49
6807 1 15
6807 45221 28
29926 1 19
39901 1 18
41872 1443 32
41898 1542 27
41924 2035 29
41986 2847 33
42012 3366 28
42317 3583 27
42343 3683 32
42369 3788 36
42400 3847 34
42447 3990 29
42484 4257 27
42510 4916 26
42536 5179 21
42562 5837 33
42588 6230 35
42768 6696 26
45221 1 35
55196 1 16
60313 60324 203
60324 60335 281
60335 60340 240
60335 60827 107
60340 60384 100
60340 60827 72
60384 60390 316
60390 60417 190
60390 60864 101
60417 60438 301
60438 60465 236
60438 61141 75
60465 60492 182
60465 60890 95
60492 60497 311
60497 60500 185
60497 60554 90
60500 60554 122
60500 60567 83
60554 60567 204
60567 60595 319
60595 60622 200
60595 60972 98
60622 60626 266
60626 60639 200
60626 60653 114
60639 60653 98
60639 1 104
60653 60667 183
60667 60711 111
60667 61041 116
60711 60768 181
60768 60313 101
60768 60324 102
60827 60384 204
60864 60417 82
60890 60492 95
60972 60622 101
61041 60711 96
61141 60465 114
73309 73310 179
73310 73309 139
73310 1 33
84703 1 3
94678 1 29
0 1443 16
0 1 98
0 29926 16
0 39901 31
0 41872 27
0 55196 16
0 60313 106
0 73309 27
0 84703 5
0 94678 23