#gt10.kmer27.(1250000.1260000).V94.E135.mincyc100.e1.0
#construct-flow-graph.py -o graphs-g10-w10000-k27-cyc/ -g 10 -w 10000 -k 27 --mincycles 1 --nreads 5 --readlength 1000 --distribution lognormal11 --pdf
#kmersize=27
#windowsize=10000
#acyclic=False
#mincycles=1
#distribution=lognormal11
#ngenomes=10
#nreads=5
#readlength=1000
#outdir=graphs-g10-w10000-k27-cyc/
#pdf=True
#erroreps=1.0
#unique source is 0, unique sink is 1
#genomes: GCA_000005845.2_ASM584v2.fna GCA_000006665.1_ASM666v1.fna GCA_000007445.1_ASM744v1.fna GCA_000008865.2_ASM886v2.fna GCA_000009565.2_ASM956v1.fna GCA_000010245.1_ASM1024v1.fna GCA_000010385.1_ASM1038v1.fna GCA_000010485.1_ASM1048v1.fna GCA_000010745.1_ASM1074v1.fna GCA_000010765.1_ASM1076v1.fna 
# ground truth paths, in the format 'weight node1 node2 node3 ... '
#T 267 0 2 8399 9976 1 
#T 18 0 1 
#T 75 0 29926 1 
#T 25 0 38968 38972 38968 38972 1 
#T 69 0 47129 47201 47241 47250 47252 47287 47331 47366 47372 47419 47460 47511 47524 47611 47622 47649 47129 47201 47241 47690 47287 47331 47736 47366 47372 47756 47419 47460 47811 47838 47511 47524 47875 47611 47622 47950 47649 47129 47201 47250 47252 47690 47287 47331 47736 47756 47419 47460 47811 48065 47838 47511 47524 47875 1 
#T 10 0 50882 2 8399 1 
#T 5 0 50883 50901 50928 51383 51410 52610 52632 53749 53776 53803 53815 53842 53845 53872 54579 54636 54912 54939 55146 55185 55221 55230 55260 55377 55404 55437 55464 56565 56592 56959 56986 57034 57061 57480 57507 57828 57855 58987 60857 1 
#T 36 0 70832 1 
#T 6 0 72701 50883 50901 72727 50928 51383 72753 51410 52610 72775 52632 53749 72801 53776 72827 53803 53815 72853 53842 53845 72879 53872 54579 72935 54636 54912 72961 54939 55146 72999 55185 73034 55221 55230 73063 55260 55377 73089 55404 55437 73115 55464 56565 73141 56592 56959 73167 56986 57034 73193 57061 57480 73219 57507 57828 73245 57855 58987 1 
#T 12 0 83220 1 
# subpath constraints, in the format 'node1 node2 node3 ... '
# 0 subpath constraints for genome
#S 2 8399 
#S 2 8399 9976 
#S 2 8399 9976 
#S 2 8399 
#S 2 8399 
# 1 subpath constraints for genome
#S 0 1 
#S 0 1 
#S 0 1 
#S 0 1 
#S 0 1 
# 2 subpath constraints for genome
#S 0 29926 
#S 0 29926 
#S 0 29926 
#S 0 29926 
#S 0 29926 
# 3 subpath constraints for genome
#S 0 38968 38972 38968 38972 1 
#S 0 38968 
#S 0 38968 
#S 0 38968 
#S 38972 1 
# 4 subpath constraints for genome
#S 0 47129 
#S 47460 47811 48065 47838 47511 47524 47875 1 
#S 47331 47736 47366 47372 47756 47419 47460 47811 47838 47511 47524 47875 47611 47622 47950 47649 47129 47201 47250 47252 47690 47287 47331 47736 47756 47419 47460 47811 48065 47838 47511 47524 47875 1 
#S 47511 47524 47875 47611 47622 47950 47649 47129 47201 47250 47252 47690 47287 47331 47736 47756 47419 47460 47811 48065 47838 47511 47524 47875 1 
#S 0 47129 47201 47241 47250 47252 47287 47331 47366 47372 47419 47460 47511 
# 5 subpath constraints for genome
#S 2 8399 
#S 2 8399 
#S 2 8399 
#S 2 8399 
#S 2 8399 
# 6 subpath constraints for genome
#S 51410 52610 52632 53749 
#S 58987 60857 
#S 51410 52610 52632 53749 
#S 56986 57034 57061 57480 57507 57828 57855 58987 
#S 57855 58987 60857 
# 7 subpath constraints for genome
#S 0 70832 
#S 0 70832 
#S 0 70832 
#S 0 70832 
#S 0 70832 
# 8 subpath constraints for genome
#S 55464 56565 73141 56592 56959 73167 56986 57034 73193 57061 57480 73219 
#S 0 72701 50883 50901 72727 50928 51383 72753 51410 52610 
#S 51410 52610 72775 52632 53749 
#S 57855 58987 
#S 0 72701 50883 50901 72727 50928 51383 72753 51410 52610 
# 9 subpath constraints for genome
#S 0 83220 
#S 0 83220 
#S 0 83220 
#S 0 83220 
#S 0 83220 
135
2 8399 257
8399 1 6
8399 9976 278
9976 1 238
29926 1 77
38968 38972 39
38972 38968 26
38972 1 21
47129 47201 203
47201 47241 134
47201 47250 70
47241 47250 59
47241 47690 64
47250 47252 136
47252 47287 79
47252 47690 72
47287 47331 211
47331 47366 67
47331 47736 122
47366 47372 144
47372 47419 69
47372 47756 67
47419 47460 203
47460 47511 70
47460 47811 134
47511 47524 220
47524 47611 74
47524 47875 152
47611 47622 136
47622 47649 60
47622 47950 75
47649 47129 147
47690 47287 138
47736 47366 68
47736 47756 68
47756 47419 150
47811 47838 76
47811 48065 68
47838 47511 126
47875 47611 64
47875 1 75
47950 47649 83
48065 47838 79
50882 2 9
50883 50901 6
50901 50928 7
50901 72727 4
50928 51383 13
51383 51410 7
51383 72753 7
51410 52610 8
52610 52632 10
52610 72775 1
52632 53749 11
53749 53776 5
53749 72801 8
53776 53803 3
53776 72827 3
53803 53815 9
53815 53842 3
53815 72853 7
53842 53845 12
53845 53872 3
53845 72879 7
53872 54579 9
54579 54636 4
54579 72935 7
54636 54912 17
54912 54939 3
54912 72961 4
54939 55146 9
55146 55185 6
55146 72999 5
55185 55221 3
55185 73034 4
55221 55230 5
55230 55260 4
55230 73063 2
55260 55377 11
55377 55404 3
55377 73089 2
55404 55437 6
55437 55464 5
55437 73115 5
55464 56565 14
56565 56592 6
56565 73141 4
56592 56959 16
56959 56986 6
56959 73167 4
56986 57034 12
57034 57061 4
57034 73193 6
57061 57480 8
57480 57507 5
57480 73219 3
57507 57828 12
57828 57855 3
57828 73245 7
57855 58987 10
58987 1 5
58987 60857 5
60857 1 3
70832 1 36
72701 50883 7
72727 50928 7
72753 51410 8
72775 52632 9
72801 53776 6
72827 53803 8
72853 53842 6
72879 53872 1
72935 54636 8
72961 54939 4
72999 55185 6
73034 55221 4
73063 55260 8
73089 55404 3
73115 55464 10
73141 56592 4
73167 56986 7
73193 57061 4
73219 57507 4
73245 57855 7
83220 1 13
0 2 279
0 50883 10
0 1 17
0 29926 72
0 38968 29
0 47129 72
0 50882 15
0 70832 33
0 72701 4
0 83220 14