#gt10.kmer27.(980000.990000).V95.E136.mincyc6.e1.0
#construct-flow-graph.py -o graphs-g10-w10000-k27-cyc/ -g 10 -w 10000 -k 27 --mincycles 1 --nreads 5 --readlength 1000 --distribution lognormal11 --pdf
#kmersize=27
#windowsize=10000
#acyclic=False
#mincycles=1
#distribution=lognormal11
#ngenomes=10
#nreads=5
#readlength=1000
#outdir=graphs-g10-w10000-k27-cyc/
#pdf=True
#erroreps=1.0
#unique source is 0, unique sink is 1
#genomes: GCA_000005845.2_ASM584v2.fna GCA_000006665.1_ASM666v1.fna GCA_000007445.1_ASM744v1.fna GCA_000008865.2_ASM886v2.fna GCA_000009565.2_ASM956v1.fna GCA_000010245.1_ASM1024v1.fna GCA_000010385.1_ASM1038v1.fna GCA_000010485.1_ASM1048v1.fna GCA_000010745.1_ASM1074v1.fna GCA_000010765.1_ASM1076v1.fna 
# ground truth paths, in the format 'weight node1 node2 node3 ... '
#T 48 0 2 1050 1077 2092 2119 3547 3574 3599 3630 4301 4328 4892 9554 9976 1 
#T 16 0 11631 11632 11695 11731 11752 11788 15002 15028 18921 18948 19726 19753 19951 1 
#T 54 0 29559 29564 29580 29559 29564 29613 29617 29618 29619 29634 29636 29613 29617 29634 29636 29580 29618 29619 1 
#T 32 0 11632 11695 29943 11731 11752 29978 11788 15002 30002 15028 18921 30028 18948 19726 30054 19753 19951 31711 1 
#T 82 0 36373 36374 2 1050 36821 1077 2092 36847 2119 3547 36873 3574 3599 36903 3630 4301 36929 4328 4892 1 
#T 34 0 36374 2 1050 1077 2092 2119 3547 3574 3599 3630 4301 4328 4892 9554 1 
#T 15 0 36930 37035 37062 37455 37542 37910 37937 38168 38195 40016 40043 40344 40371 41623 41642 41898 43517 43544 43580 43607 43637 43679 43706 44353 44380 45780 45807 46178 46904 1 
#T 7 0 1 
#T 26 0 56880 36930 37035 57631 37062 37455 57717 37542 37910 57743 37937 38168 57769 38195 40016 57795 40043 40344 57821 40371 41623 41642 41898 43517 57847 43544 43580 57873 43607 57902 43637 43679 57928 43706 44353 57954 44380 45780 57980 45807 46178 1 
#T 70 0 62259 56880 36930 37035 37062 37455 37542 37910 37937 38168 57769 38195 40016 40043 40344 57821 40371 41623 62278 41642 41898 1 
# subpath constraints, in the format 'node1 node2 node3 ... '
# 0 subpath constraints for genome
#S 4892 9554 
#S 4892 9554 9976 
#S 9554 9976 
#S 3630 4301 4328 4892 
#S 2119 3547 3574 3599 3630 4301 
# 1 subpath constraints for genome
#S 15028 18921 18948 19726 
#S 15028 18921 
#S 15028 18921 
#S 18948 19726 19753 19951 
#S 11788 15002 15028 18921 
# 2 subpath constraints for genome
#S 0 29559 
#S 0 29559 
#S 0 29559 29564 29580 29559 29564 29613 29617 29618 29619 29634 29636 29613 29617 29634 29636 29580 29618 29619 1 
#S 0 29559 
#S 0 29559 
# 3 subpath constraints for genome
#S 11788 15002 30002 15028 18921 
#S 18948 19726 30054 19753 19951 31711 
#S 11788 15002 30002 15028 18921 
#S 15028 18921 30028 18948 19726 
#S 19951 31711 
# 4 subpath constraints for genome
#S 1077 2092 36847 2119 3547 
#S 3630 4301 36929 4328 4892 
#S 36374 2 1050 
#S 0 36373 
#S 2 1050 36821 1077 2092 
# 5 subpath constraints for genome
#S 4892 9554 
#S 4892 9554 
#S 2 1050 1077 2092 
#S 4892 9554 
#S 3630 4301 4328 4892 
# 6 subpath constraints for genome
#S 40371 41623 41642 41898 43517 
#S 43706 44353 44380 45780 
#S 41898 43517 43544 43580 43607 43637 43679 43706 44353 
#S 44380 45780 45807 46178 
#S 41898 43517 
# 7 subpath constraints for genome
#S 0 1 
#S 0 1 
#S 0 1 
#S 0 1 
#S 0 1 
# 8 subpath constraints for genome
#S 43706 44353 57954 44380 45780 
#S 40043 40344 57821 40371 41623 
#S 40371 41623 41642 41898 43517 
#S 44380 45780 
#S 37542 37910 57743 37937 38168 57769 38195 40016 
# 9 subpath constraints for genome
#S 40371 41623 
#S 38195 40016 40043 
#S 37062 37455 37542 37910 37937 38168 57769 38195 40016 
#S 0 62259 
#S 0 62259 
136
2 1050 165
1050 1077 77
1050 36821 94
1077 2092 152
2092 2119 91
2092 36847 86
2119 3547 170
3547 3574 83
3547 36873 87
3574 3599 151
3599 3630 82
3599 36903 80
3630 4301 148
4301 4328 72
4301 36929 76
4328 4892 148
4892 1 72
4892 9554 73
9554 1 34
9554 9976 41
9976 1 40
11631 11632 20
11632 11695 57
11695 11731 21
11695 29943 34
11731 11752 45
11752 11788 15
11752 29978 24
11788 15002 51
15002 15028 11
15002 30002 36
15028 18921 50
18921 18948 12
18921 30028 28
18948 19726 47
19726 19753 18
19726 30054 38
19753 19951 45
19951 1 19
19951 31711 33
29559 29564 105
29564 29580 53
29564 29613 50
29580 29559 63
29580 29618 54
29613 29617 118
29617 29618 57
29617 29634 59
29618 29619 119
29619 29634 57
29619 1 47
29634 29636 117
29636 29613 45
29636 29580 60
29943 11731 26
29978 11788 32
30002 15028 31
30028 18948 34
30054 19753 27
31711 1 28
36373 36374 88
36374 2 132
36821 1077 90
36847 2119 93
36873 3574 84
36903 3630 74
36929 4328 81
36930 37035 105
37035 37062 67
37035 57631 27
37062 37455 106
37455 37542 78
37455 57717 22
37542 37910 109
37910 37937 86
37910 57743 25
37937 38168 131
38168 38195 12
38168 57769 98
38195 40016 111
40016 40043 83
40016 57795 23
40043 40344 107
40344 40371 13
40344 57821 88
40371 41623 107
41623 41642 35
41623 62278 65
41642 41898 114
41898 1 65
41898 43517 36
43517 43544 21
43517 57847 21
43544 43580 32
43580 43607 14
43580 57873 25
43607 43637 15
43607 57902 24
43637 43679 42
43679 43706 22
43679 57928 30
43706 44353 40
44353 44380 13
44353 57954 23
44380 45780 46
45780 45807 20
45780 57980 26
45807 46178 33
46178 1 35
46178 46904 9
46904 1 14
56880 36930 97
57631 37062 31
57717 37542 28
57743 37937 30
57769 38195 98
57795 40043 23
57821 40371 116
57847 43544 20
57873 43607 20
57902 43637 26
57928 43706 29
57954 44380 40
57980 45807 19
62259 56880 62
62278 41642 88
0 2 41
0 11632 27
0 36374 31
0 36930 14
0 56880 21
0 11631 20
0 29559 55
0 36373 95
0 1 10
0 62259 60