#gt10.kmer27.(3010000.3020000).V157.E216.mincyc2.e1.0
#construct-flow-graph.py -o graphs-g10-w10000-k27-cyc/ -g 10 -w 10000 -k 27 --mincycles 1 --nreads 5 --readlength 1000 --distribution lognormal11 --pdf
#kmersize=27
#windowsize=10000
#acyclic=False
#mincycles=1
#distribution=lognormal11
#ngenomes=10
#nreads=5
#readlength=1000
#outdir=graphs-g10-w10000-k27-cyc/
#pdf=True
#erroreps=1.0
#unique source is 0, unique sink is 1
#genomes: GCA_000005845.2_ASM584v2.fna GCA_000006665.1_ASM666v1.fna GCA_000007445.1_ASM744v1.fna GCA_000008865.2_ASM886v2.fna GCA_000009565.2_ASM956v1.fna GCA_000010245.1_ASM1024v1.fna GCA_000010385.1_ASM1038v1.fna GCA_000010485.1_ASM1048v1.fna GCA_000010745.1_ASM1074v1.fna GCA_000010765.1_ASM1076v1.fna 
# ground truth paths, in the format 'weight node1 node2 node3 ... '
#T 7 0 1345 1346 2400 2402 2525 2531 2400 2402 9973 1 
#T 94 0 1 
#T 63 0 23702 23703 23770 23833 23857 23902 23905 23965 24088 24115 24175 24202 24299 24326 24431 24458 24485 24515 24530 24578 24587 24617 24704 24746 24766 24797 24833 24860 24866 24893 24914 24953 25007 25064 25118 25145 25181 25196 25223 25340 25367 25381 25496 25526 25556 25607 25670 25694 25730 25733 25769 25866 25917 25928 25955 25958 25985 26322 26349 26355 26382 26421 26448 26579 26606 26613 26648 26693 26720 26737 26764 26811 26898 26928 27072 27075 27114 27204 27246 27568 27607 27625 27652 27685 27712 27802 27829 27859 28118 28371 28424 28425 28452 28464 1 
#T 85 0 39898 1 
#T 30 0 47968 47981 2525 2531 47968 47981 1 
#T 24 0 1346 2400 2402 2525 2531 2400 2402 9973 51196 1 
#T 129 0 23703 23770 51258 23833 23857 51302 23902 23905 51361 23965 24088 51387 24115 24175 51413 24202 24299 51439 24326 24431 51465 24458 24485 51494 24515 24530 51541 24578 24587 51570 24617 24704 51611 24746 24766 51641 24797 24833 51667 24860 24866 51693 24893 24914 51731 24953 25007 51787 25064 25118 51813 25145 51848 25181 25196 51874 25223 25340 51900 25367 25381 52014 25496 25526 52043 25556 25607 52105 25670 25694 52140 25730 25733 52175 25769 25866 52225 25917 25928 52251 25955 25958 52277 25985 26322 52303 26349 26355 52329 26382 26421 52355 26448 26579 52381 26606 26613 52415 26648 26693 52441 26720 26737 52467 26764 26811 52553 26898 26928 52696 27072 27075 52734 27114 27204 52775 27246 27568 52813 27607 27625 52839 27652 27685 52865 27712 27802 52891 27829 27859 53149 28118 28371 53201 28424 28425 53227 28452 28464 58440 1 
#T 15 0 68415 1 
#T 8 0 78390 1 
#T 85 0 88365 1 
# subpath constraints, in the format 'node1 node2 node3 ... '
# 0 subpath constraints for genome
#S 2402 9973 
#S 2402 9973 
#S 2402 9973 
#S 2402 9973 
#S 2402 9973 
# 1 subpath constraints for genome
#S 0 1 
#S 0 1 
#S 0 1 
#S 0 1 
#S 0 1 
# 2 subpath constraints for genome
#S 0 23702 23703 23770 23833 23857 23902 23905 23965 24088 24115 24175 24202 24299 24326 24431 24458 24485 24515 24530 24578 
#S 0 23702 
#S 25694 25730 25733 25769 25866 25917 25928 25955 25958 25985 26322 26349 26355 26382 26421 26448 26579 26606 26613 26648 26693 26720 
#S 26720 26737 26764 26811 26898 26928 27072 27075 27114 27204 27246 27568 27607 27625 27652 27685 27712 27802 
#S 26382 26421 26448 26579 26606 26613 26648 26693 26720 26737 26764 26811 26898 26928 27072 27075 27114 27204 27246 27568 
# 3 subpath constraints for genome
#S 0 39898 
#S 0 39898 
#S 0 39898 
#S 0 39898 
#S 0 39898 
# 4 subpath constraints for genome
#S 47981 1 
#S 0 47968 
#S 0 47968 47981 2525 2531 47968 47981 1 
#S 47981 
#S 0 47968 
# 5 subpath constraints for genome
#S 2402 9973 
#S 2402 9973 
#S 2402 9973 
#S 9973 51196 
#S 2402 9973 
# 6 subpath constraints for genome
#S 28464 58440 
#S 23905 51361 23965 24088 51387 24115 24175 51413 24202 24299 51439 24326 24431 51465 24458 24485 51494 24515 24530 51541 24578 24587 51570 24617 24704 51611 24746 24766 51641 24797 24833 51667 24860 24866 51693 24893 24914 51731 24953 25007 
#S 28464 58440 
#S 26421 52355 26448 26579 52381 26606 26613 52415 26648 26693 52441 26720 26737 52467 26764 26811 52553 26898 26928 52696 27072 27075 52734 27114 27204 52775 27246 27568 
#S 28464 58440 
# 7 subpath constraints for genome
#S 0 68415 
#S 0 68415 
#S 0 68415 
#S 0 68415 
#S 0 68415 
# 8 subpath constraints for genome
#S 0 78390 
#S 0 78390 
#S 0 78390 
#S 0 78390 
#S 0 78390 
# 9 subpath constraints for genome
#S 0 88365 
#S 0 88365 
#S 0 88365 
#S 0 88365 
#S 0 88365 
216
1345 1346 12
1346 2400 33
2400 2402 51
2402 2525 29
2402 9973 27
2525 2531 59
2531 2400 33
2531 47968 22
9973 1 6
9973 51196 20
23702 23703 57
23703 23770 181
23770 23833 65
23770 51258 116
23833 23857 205
23857 23902 61
23857 51302 120
23902 23905 172
23905 23965 61
23905 51361 150
23965 24088 180
24088 24115 51
24088 51387 132
24115 24175 149
24175 24202 66
24175 51413 152
24202 24299 218
24299 24326 62
24299 51439 114
24326 24431 181
24431 24458 62
24431 51465 150
24458 24485 192
24485 24515 68
24485 51494 147
24515 24530 171
24530 24578 68
24530 51541 128
24578 24587 185
24587 24617 55
24587 51570 127
24617 24704 194
24704 24746 70
24704 51611 154
24746 24766 193
24766 24797 65
24766 51641 141
24797 24833 192
24833 24860 51
24833 51667 117
24860 24866 189
24866 24893 62
24866 51693 124
24893 24914 178
24914 24953 60
24914 51731 124
24953 25007 217
25007 25064 66
25007 51787 134
25064 25118 199
25118 25145 70
25118 51813 146
25145 25181 70
25145 51848 112
25181 25196 186
25196 25223 75
25196 51874 132
25223 25340 158
25340 25367 76
25340 51900 123
25367 25381 226
25381 25496 63
25381 52014 130
25496 25526 188
25526 25556 71
25526 52043 153
25556 25607 189
25607 25670 66
25607 52105 136
25670 25694 205
25694 25730 75
25694 52140 140
25730 25733 217
25733 25769 62
25733 52175 132
25769 25866 200
25866 25917 82
25866 52225 131
25917 25928 207
25928 25955 55
25928 52251 128
25955 25958 181
25958 25985 65
25958 52277 122
25985 26322 229
26322 26349 69
26322 52303 115
26349 26355 175
26355 26382 57
26355 52329 140
26382 26421 193
26421 26448 83
26421 52355 104
26448 26579 170
26579 26606 58
26579 52381 132
26606 26613 213
26613 26648 61
26613 52415 128
26648 26693 192
26693 26720 69
26693 52441 131
26720 26737 167
26737 26764 76
26737 52467 131
26764 26811 201
26811 26898 59
26811 52553 145
26898 26928 176
26928 27072 58
26928 52696 142
27072 27075 196
27075 27114 54
27075 52734 137
27114 27204 195
27204 27246 67
27204 52775 129
27246 27568 214
27568 27607 62
27568 52813 134
27607 27625 206
27625 27652 68
27625 52839 149
27652 27685 174
27685 27712 68
27685 52865 113
27712 27802 184
27802 27829 66
27802 52891 129
27829 27859 181
27859 28118 68
27859 53149 124
28118 28371 209
28371 28424 54
28371 53201 117
28424 28425 186
28425 28452 65
28425 53227 138
28452 28464 183
28464 1 69
28464 58440 125
39898 1 88
47968 47981 55
47981 2525 35
47981 1 30
51196 1 28
51258 23833 103
51302 23902 134
51361 23965 123
51387 24115 127
51413 24202 122
51439 24326 130
51465 24458 133
51494 24515 116
51541 24578 145
51570 24617 127
51611 24746 136
51641 24797 131
51667 24860 147
51693 24893 154
51731 24953 108
51787 25064 120
51813 25145 120
51848 25181 117
51874 25223 136
51900 25367 124
52014 25496 135
52043 25556 140
52105 25670 134
52140 25730 133
52175 25769 132
52225 25917 110
52251 25955 118
52277 25985 124
52303 26349 120
52329 26382 125
52355 26448 122
52381 26606 146
52415 26648 124
52441 26720 136
52467 26764 125
52553 26898 125
52696 27072 127
52734 27114 118
52775 27246 118
52813 27607 134
52839 27652 111
52865 27712 152
52891 27829 129
53149 28118 132
53201 28424 117
53227 28452 120
58440 1 142
68415 1 14
78390 1 9
88365 1 83
0 1346 26
0 23703 142
0 1345 6
0 1 105
0 23702 75
0 39898 105
0 47968 29
0 68415 9
0 78390 9
0 88365 78