#gt10.kmer27.(2580000.2590000).V63.E91.mincyc100.e1.0
#construct-flow-graph.py -o graphs-g10-w10000-k27-cyc/ -g 10 -w 10000 -k 27 --mincycles 1 --nreads 5 --readlength 1000 --distribution lognormal11 --pdf
#kmersize=27
#windowsize=10000
#acyclic=False
#mincycles=1
#distribution=lognormal11
#ngenomes=10
#nreads=5
#readlength=1000
#outdir=graphs-g10-w10000-k27-cyc/
#pdf=True
#erroreps=1.0
#unique source is 0, unique sink is 1
#genomes: GCA_000005845.2_ASM584v2.fna GCA_000006665.1_ASM666v1.fna GCA_000007445.1_ASM744v1.fna GCA_000008865.2_ASM886v2.fna GCA_000009565.2_ASM956v1.fna GCA_000010245.1_ASM1024v1.fna GCA_000010385.1_ASM1038v1.fna GCA_000010485.1_ASM1048v1.fna GCA_000010745.1_ASM1074v1.fna GCA_000010765.1_ASM1076v1.fna 
# ground truth paths, in the format 'weight node1 node2 node3 ... '
#T 114 0 1345 1346 9976 1 
#T 17 0 1 
#T 9 0 29926 1 
#T 18 0 39901 1 
#T 16 0 49876 1 
#T 70 0 1346 9976 51220 1 
#T 83 0 57299 57308 1 
#T 65 0 63323 57299 57308 71160 1 
#T 25 0 77971 77996 78023 78036 78069 78090 78117 78174 78255 78261 78333 78360 78372 78438 78480 78507 78521 78570 78597 78627 78672 78720 78801 78807 78834 78855 78888 78987 79085 79100 79199 79227 1 
#T 43 0 83160 77971 77996 83199 78023 78036 83231 78069 78090 83257 78117 78174 83337 78255 78261 83408 78333 83434 78360 78372 83499 78438 78480 83525 78507 78521 83573 78570 78597 83602 78627 83646 78672 78720 83726 78801 78807 83752 78834 78855 83784 78888 78987 83881 79085 79100 83979 79199 79227 83996 83160 77971 77996 83199 78023 78036 83231 78069 78090 83257 78117 78174 83337 78255 78261 83408 78333 83434 78360 78372 83499 78438 78480 83525 78507 78521 83573 78570 78597 83602 78627 83646 78672 78720 83726 78801 78807 83752 78834 78855 83784 78888 78987 83881 79085 79100 83979 79199 79227 83996 1 
# subpath constraints, in the format 'node1 node2 node3 ... '
# 0 subpath constraints for genome
#S 1346 9976 
#S 1346 9976 
#S 1346 9976 
#S 1346 9976 
#S 1346 9976 
# 1 subpath constraints for genome
#S 0 1 
#S 0 1 
#S 0 1 
#S 0 1 
#S 0 1 
# 2 subpath constraints for genome
#S 0 29926 
#S 0 29926 
#S 0 29926 
#S 0 29926 
#S 0 29926 
# 3 subpath constraints for genome
#S 0 39901 
#S 0 39901 
#S 0 39901 
#S 0 39901 
#S 0 39901 
# 4 subpath constraints for genome
#S 0 49876 
#S 0 49876 
#S 0 49876 
#S 0 49876 
#S 0 49876 
# 5 subpath constraints for genome
#S 1346 9976 
#S 1346 9976 
#S 1346 9976 
#S 9976 51220 
#S 1346 9976 
# 6 subpath constraints for genome
#S 0 57299 
#S 0 57299 
#S 57308 1 
#S 57308 1 
#S 
# 7 subpath constraints for genome
#S 57308 71160 
#S 0 63323 
#S 57308 71160 
#S 57308 71160 
#S 57308 71160 
# 8 subpath constraints for genome
#S 0 77971 
#S 0 77971 
#S 0 77971 
#S 0 77971 77996 78023 78036 78069 78090 78117 78174 78255 78261 78333 78360 
#S 0 77971 
# 9 subpath constraints for genome
#S 83996 83160 77971 77996 83199 78023 78036 83231 78069 78090 83257 78117 78174 83337 78255 78261 83408 78333 83434 78360 78372 83499 78438 78480 83525 78507 78521 83573 78570 78597 83602 78627 83646 78672 78720 83726 
#S 83996 83160 77971 77996 83199 78023 78036 83231 78069 78090 83257 78117 78174 83337 78255 78261 83408 78333 83434 78360 78372 83499 
#S 78333 83434 78360 78372 83499 78438 78480 83525 78507 78521 83573 78570 78597 83602 78627 83646 78672 78720 83726 78801 78807 83752 78834 78855 83784 78888 78987 83881 79085 79100 83979 79199 79227 83996 1 
#S 83996 83160 
#S 83996 83160 
91
1345 1346 140
1346 9976 183
9976 1 129
9976 51220 80
29926 1 9
39901 1 18
49876 1 15
51220 1 71
57299 57308 148
57308 1 73
57308 71160 65
63323 57299 75
71160 1 52
77971 77996 112
77996 78023 28
77996 83199 88
78023 78036 118
78036 78069 27
78036 83231 101
78069 78090 129
78090 78117 21
78090 83257 72
78117 78174 107
78174 78255 28
78174 83337 87
78255 78261 89
78261 78333 25
78261 83408 88
78333 78360 17
78333 83434 86
78360 78372 108
78372 78438 20
78372 83499 73
78438 78480 100
78480 78507 31
78480 83525 86
78507 78521 102
78521 78570 23
78521 83573 83
78570 78597 126
78597 78627 21
78597 83602 91
78627 78672 33
78627 83646 99
78672 78720 116
78720 78801 24
78720 83726 68
78801 78807 112
78807 78834 26
78807 83752 73
78834 78855 112
78855 78888 27
78855 83784 85
78888 78987 110
78987 79085 30
78987 83881 88
79085 79100 120
79100 79199 18
79100 83979 81
79199 79227 104
79227 1 31
79227 83996 89
83160 77971 80
83199 78023 96
83231 78069 86
83257 78117 74
83337 78255 94
83408 78333 85
83434 78360 105
83499 78438 91
83525 78507 70
83573 78570 95
83602 78627 78
83646 78672 95
83726 78801 78
83752 78834 84
83784 78888 119
83881 79085 84
83979 79199 88
83996 83160 30
83996 1 41
0 1346 79
0 1345 122
0 1 16
0 29926 12
0 39901 30
0 49876 25
0 57299 78
0 63323 60
0 77971 21
0 83160 58