#gt10.kmer27.(3370000.3380000).V30.E50.mincyc9.e1.0
#construct-flow-graph.py -o graphs-g10-w10000-k27-cyc/ -g 10 -w 10000 -k 27 --mincycles 1 --nreads 5 --readlength 1000 --distribution lognormal11 --pdf
#kmersize=27
#windowsize=10000
#acyclic=False
#mincycles=1
#distribution=lognormal11
#ngenomes=10
#nreads=5
#readlength=1000
#outdir=graphs-g10-w10000-k27-cyc/
#pdf=True
#erroreps=1.0
#unique source is 0, unique sink is 1
#genomes: GCA_000005845.2_ASM584v2.fna GCA_000006665.1_ASM666v1.fna GCA_000007445.1_ASM744v1.fna GCA_000008865.2_ASM886v2.fna GCA_000009565.2_ASM956v1.fna GCA_000010245.1_ASM1024v1.fna GCA_000010385.1_ASM1038v1.fna GCA_000010485.1_ASM1048v1.fna GCA_000010745.1_ASM1074v1.fna GCA_000010765.1_ASM1076v1.fna 
# ground truth paths, in the format 'weight node1 node2 node3 ... '
#T 26 0 146 147 9976 1 
#T 12 0 1 
#T 18 0 24494 24500 24565 24569 27711 27715 27711 27715 24565 1 
#T 38 0 39895 1 
#T 30 0 42776 24494 24500 42832 24565 24569 1 
#T 224 0 147 9976 50003 1 
#T 191 0 59978 1 
#T 53 0 69953 1 
#T 143 0 70936 70937 70938 70941 70942 70998 70938 70941 70999 71054 70998 70938 70941 70999 70937 70938 70941 70942 71111 71113 70938 70941 70942 71111 71113 71215 71054 70998 70938 70941 71216 71215 71054 70998 70938 70941 71216 70936 70937 70938 70941 70942 71111 1 
#T 26 0 89855 1 
# subpath constraints, in the format 'node1 node2 node3 ... '
# 0 subpath constraints for genome
#S 147 9976 
#S 147 9976 
#S 147 9976 
#S 147 9976 
#S 147 9976 
# 1 subpath constraints for genome
#S 0 1 
#S 0 1 
#S 0 1 
#S 0 1 
#S 0 1 
# 2 subpath constraints for genome
#S 0 24494 
#S 0 24494 
#S 24569 27711 
#S 24569 27711 27715 27711 27715 24565 1 
#S 0 24494 
# 3 subpath constraints for genome
#S 0 39895 
#S 0 39895 
#S 0 39895 
#S 0 39895 
#S 0 39895 
# 4 subpath constraints for genome
#S 0 42776 
#S 24569 1 
#S 0 42776 
#S 0 42776 
#S 0 42776 24494 24500 42832 24565 24569 1 
# 5 subpath constraints for genome
#S 147 9976 50003 
#S 147 9976 50003 
#S 147 9976 
#S 147 9976 50003 
#S 147 9976 
# 6 subpath constraints for genome
#S 0 59978 
#S 0 59978 
#S 0 59978 
#S 0 59978 
#S 0 59978 
# 7 subpath constraints for genome
#S 0 69953 
#S 0 69953 
#S 0 69953 
#S 0 69953 
#S 0 69953 
# 8 subpath constraints for genome
#S 71111 1 
#S 71111 1 
#S 71111 1 
#S 71111 1 
#S 71111 1 
# 9 subpath constraints for genome
#S 0 89855 
#S 0 89855 
#S 0 89855 
#S 0 89855 
#S 0 89855 
50
146 147 30
147 9976 246
9976 1 28
9976 50003 237
24494 24500 52
24500 24565 13
24500 42832 27
24565 24569 48
24565 1 17
24569 27711 22
24569 1 26
27711 27715 27
27715 27711 20
27715 24565 20
39895 1 43
42776 24494 28
42832 24565 33
50003 1 245
59978 1 182
69953 1 63
70936 70937 243
70937 70938 408
70938 70941 1067
70941 70942 555
70941 70999 276
70941 71216 295
70942 70998 133
70942 71111 413
70998 70938 551
70999 71054 153
70999 70937 152
71054 70998 450
71111 71113 299
71111 1 144
71113 70938 145
71113 71215 155
71215 71054 293
71216 71215 149
71216 70936 133
89855 1 21
0 147 229
0 146 20
0 1 13
0 24494 16
0 39895 40
0 42776 23
0 59978 198
0 69953 54
0 70936 146
0 89855 27