#gt10.kmer27.(3660000.3670000).V55.E80.mincyc100.e1.0
#construct-flow-graph.py -o graphs-g10-w10000-k27-cyc/ -g 10 -w 10000 -k 27 --mincycles 1 --nreads 5 --readlength 1000 --distribution lognormal11 --pdf
#kmersize=27
#windowsize=10000
#acyclic=False
#mincycles=1
#distribution=lognormal11
#ngenomes=10
#nreads=5
#readlength=1000
#outdir=graphs-g10-w10000-k27-cyc/
#pdf=True
#erroreps=1.0
#unique source is 0, unique sink is 1
#genomes: GCA_000005845.2_ASM584v2.fna GCA_000006665.1_ASM666v1.fna GCA_000007445.1_ASM744v1.fna GCA_000008865.2_ASM886v2.fna GCA_000009565.2_ASM956v1.fna GCA_000010245.1_ASM1024v1.fna GCA_000010385.1_ASM1038v1.fna GCA_000010485.1_ASM1048v1.fna GCA_000010745.1_ASM1074v1.fna GCA_000010765.1_ASM1076v1.fna 
# ground truth paths, in the format 'weight node1 node2 node3 ... '
#T 23 0 1 
#T 22 0 15558 15561 15562 15558 15561 15558 15561 15562 1 
#T 230 0 29917 1 
#T 98 0 39892 1 
#T 58 0 49867 1 
#T 9 0 59842 1 
#T 63 0 69817 1 
#T 30 0 79792 1 
#T 20 0 80489 80531 80652 80669 80778 80793 80838 80863 80908 80921 80985 81006 81033 81039 81066 81094 81168 81201 81245 81294 81297 81377 81390 81444 81489 81555 81566 81609 81622 80489 80531 86864 80652 80669 86972 80778 80793 87101 80838 80863 87145 80908 80921 87208 80985 81006 87234 81033 81039 87260 81066 81094 87333 81168 87365 81201 81245 87413 81294 81297 87492 81377 81390 87545 81444 81489 87610 81555 81566 87652 81609 81622 1 
#T 29 0 99431 1 
# subpath constraints, in the format 'node1 node2 node3 ... '
# 0 subpath constraints for genome
#S 0 1 
#S 0 1 
#S 0 1 
#S 0 1 
#S 0 1 
# 1 subpath constraints for genome
#S 0 15558 
#S 15562 1 
#S 0 15558 
#S 15562 1 
#S 15562 1 
# 2 subpath constraints for genome
#S 0 29917 
#S 0 29917 
#S 0 29917 
#S 0 29917 
#S 0 29917 
# 3 subpath constraints for genome
#S 0 39892 
#S 0 39892 
#S 0 39892 
#S 0 39892 
#S 0 39892 
# 4 subpath constraints for genome
#S 0 49867 
#S 0 49867 
#S 0 49867 
#S 0 49867 
#S 0 49867 
# 5 subpath constraints for genome
#S 0 59842 
#S 0 59842 
#S 0 59842 
#S 0 59842 
#S 0 59842 
# 6 subpath constraints for genome
#S 0 69817 
#S 0 69817 
#S 0 69817 
#S 0 69817 
#S 0 69817 
# 7 subpath constraints for genome
#S 0 79792 
#S 0 79792 
#S 0 79792 
#S 0 79792 
#S 0 79792 
# 8 subpath constraints for genome
#S 80793 87101 80838 80863 87145 80908 80921 87208 80985 81006 87234 81033 81039 87260 81066 81094 87333 81168 87365 81201 81245 87413 81294 81297 87492 81377 81390 87545 81444 81489 87610 81555 81566 87652 81609 81622 1 
#S 81622 80489 
#S 81622 80489 
#S 
#S 81622 1 
# 9 subpath constraints for genome
#S 0 99431 
#S 0 99431 
#S 0 99431 
#S 0 99431 
#S 0 99431 
80
15558 15561 60
15561 15562 44
15561 15558 25
15562 15558 16
15562 1 20
29917 1 221
39892 1 91
49867 1 52
59842 1 6
69817 1 60
79792 1 31
80489 80531 28
80531 80652 19
80531 86864 26
80652 80669 42
80669 80778 16
80669 86972 21
80778 80793 36
80793 80838 23
80793 87101 24
80838 80863 42
80863 80908 23
80863 87145 14
80908 80921 43
80921 80985 26
80921 87208 21
80985 81006 33
81006 81033 27
81006 87234 21
81033 81039 42
81039 81066 19
81039 87260 15
81066 81094 35
81094 81168 25
81094 87333 27
81168 81201 15
81168 87365 22
81201 81245 38
81245 81294 24
81245 87413 22
81294 81297 30
81297 81377 24
81297 87492 17
81377 81390 39
81390 81444 24
81390 87545 17
81444 81489 31
81489 81555 17
81489 87610 21
81555 81566 38
81566 81609 19
81566 87652 19
81609 81622 46
81622 80489 16
81622 1 28
86864 80652 22
86972 80778 20
87101 80838 12
87145 80908 15
87208 80985 24
87234 81033 29
87260 81066 19
87333 81168 20
87365 81201 15
87413 81294 18
87492 81377 15
87545 81444 15
87610 81555 17
87652 81609 18
99431 1 30
0 1 27
0 15558 19
0 29917 219
0 39892 100
0 49867 62
0 59842 17
0 69817 79
0 79792 32
0 80489 13
0 99431 38