#gt10.kmer27.(3560000.3570000).V47.E71.mincyc100.e1.0
#construct-flow-graph.py -o graphs-g10-w10000-k27-cyc/ -g 10 -w 10000 -k 27 --mincycles 1 --nreads 5 --readlength 1000 --distribution lognormal11 --pdf
#kmersize=27
#windowsize=10000
#acyclic=False
#mincycles=1
#distribution=lognormal11
#ngenomes=10
#nreads=5
#readlength=1000
#outdir=graphs-g10-w10000-k27-cyc/
#pdf=True
#erroreps=1.0
#unique source is 0, unique sink is 1
#genomes: GCA_000005845.2_ASM584v2.fna GCA_000006665.1_ASM666v1.fna GCA_000007445.1_ASM744v1.fna GCA_000008865.2_ASM886v2.fna GCA_000009565.2_ASM956v1.fna GCA_000010245.1_ASM1024v1.fna GCA_000010385.1_ASM1038v1.fna GCA_000010485.1_ASM1048v1.fna GCA_000010745.1_ASM1074v1.fna GCA_000010765.1_ASM1076v1.fna 
# ground truth paths, in the format 'weight node1 node2 node3 ... '
#T 11 0 1 
#T 102 0 19951 1 
#T 47 0 29926 1 
#T 12 0 39901 1 
#T 18 0 41002 41018 41032 41049 41059 41076 41082 41109 41130 41165 41166 41184 41189 41236 41246 41287 41314 41318 41346 41358 41371 41400 41474 41018 41032 41059 41076 41082 41552 41109 41130 41579 41184 41189 41651 41236 41246 41287 41677 41314 41318 41358 41371 41744 41400 41474 41002 41018 41032 41049 41076 41082 41109 41130 41579 41165 41166 41246 41287 41314 41318 41346 1 
#T 12 0 59405 1 
#T 13 0 69380 1 
#T 18 0 79355 1 
#T 78 0 84744 84749 84776 84782 84878 84905 84924 84744 84749 85161 84776 84782 85256 84878 85282 84905 84924 1 
#T 74 0 99271 1 
# subpath constraints, in the format 'node1 node2 node3 ... '
# 0 subpath constraints for genome
#S 0 1 
#S 0 1 
#S 0 1 
#S 0 1 
#S 0 1 
# 1 subpath constraints for genome
#S 0 19951 
#S 0 19951 
#S 0 19951 
#S 0 19951 
#S 0 19951 
# 2 subpath constraints for genome
#S 0 29926 
#S 0 29926 
#S 0 29926 
#S 0 29926 
#S 0 29926 
# 3 subpath constraints for genome
#S 0 39901 
#S 0 39901 
#S 0 39901 
#S 0 39901 
#S 0 39901 
# 4 subpath constraints for genome
#S 41346 1 
#S 41032 41059 41076 41082 41552 41109 41130 41579 41184 41189 41651 41236 41246 41287 41677 41314 41318 41358 41371 41744 41400 41474 41002 41018 41032 41049 41076 41082 41109 41130 41579 41165 41166 41246 41287 41314 41318 41346 1 
#S 41346 1 
#S 41346 1 
#S 41346 1 
# 5 subpath constraints for genome
#S 0 59405 
#S 0 59405 
#S 0 59405 
#S 0 59405 
#S 0 59405 
# 6 subpath constraints for genome
#S 0 69380 
#S 0 69380 
#S 0 69380 
#S 0 69380 
#S 0 69380 
# 7 subpath constraints for genome
#S 0 79355 
#S 0 79355 
#S 0 79355 
#S 0 79355 
#S 0 79355 
# 8 subpath constraints for genome
#S 0 84744 
#S 84924 1 
#S 84924 1 
#S 84782 84878 84905 84924 84744 84749 85161 84776 84782 85256 84878 85282 84905 84924 1 
#S 0 84744 
# 9 subpath constraints for genome
#S 0 99271 
#S 0 99271 
#S 0 99271 
#S 0 99271 
#S 0 99271 
71
19951 1 108
29926 1 53
39901 1 8
41002 41018 37
41018 41032 57
41032 41049 34
41032 41059 16
41049 41059 16
41049 41076 18
41059 41076 34
41076 41082 46
41082 41109 37
41082 41552 21
41109 41130 47
41130 41165 12
41130 41579 38
41165 41166 33
41166 41184 16
41166 41246 25
41184 41189 30
41189 41236 17
41189 41651 18
41236 41246 33
41246 41287 55
41287 41314 28
41287 41677 20
41314 41318 63
41318 41346 24
41318 41358 23
41346 41358 22
41346 1 23
41358 41371 28
41371 41400 10
41371 41744 22
41400 41474 31
41474 41018 15
41474 41002 9
41552 41109 16
41579 41184 13
41579 41165 5
41651 41236 13
41677 41314 19
41744 41400 15
59405 1 7
69380 1 11
79355 1 19
84744 84749 158
84749 84776 76
84749 85161 84
84776 84782 175
84782 84878 75
84782 85256 69
84878 84905 78
84878 85282 80
84905 84924 164
84924 84744 83
84924 1 88
85161 84776 67
85256 84878 67
85282 84905 78
99271 1 70
0 1 9
0 19951 94
0 29926 47
0 39901 17
0 41002 20
0 59405 8
0 69380 17
0 79355 13
0 84744 94
0 99271 75