#gt10.kmer27.(4150000.4160000).V117.E165.mincyc8.e1.0
#construct-flow-graph.py -o graphs-g10-w10000-k27-cyc/ -g 10 -w 10000 -k 27 --mincycles 1 --nreads 5 --readlength 1000 --distribution lognormal11 --pdf
#kmersize=27
#windowsize=10000
#acyclic=False
#mincycles=1
#distribution=lognormal11
#ngenomes=10
#nreads=5
#readlength=1000
#outdir=graphs-g10-w10000-k27-cyc/
#pdf=True
#erroreps=1.0
#unique source is 0, unique sink is 1
#genomes: GCA_000005845.2_ASM584v2.fna GCA_000006665.1_ASM666v1.fna GCA_000007445.1_ASM744v1.fna GCA_000008865.2_ASM886v2.fna GCA_000009565.2_ASM956v1.fna GCA_000010245.1_ASM1024v1.fna GCA_000010385.1_ASM1038v1.fna GCA_000010485.1_ASM1048v1.fna GCA_000010745.1_ASM1074v1.fna GCA_000010765.1_ASM1076v1.fna 
# ground truth paths, in the format 'weight node1 node2 node3 ... '
#T 6 0 3351 3372 3387 3414 3422 3351 3372 3387 3414 3422 3474 3372 3387 3571 3414 3422 3474 9064 9089 9137 9266 9320 9513 9540 9543 9591 9618 9621 9648 9660 9693 9705 9732 9756 9783 9801 9840 9876 1 
#T 21 0 1 
#T 89 0 29828 1 
#T 70 0 38388 38391 38418 38465 38388 38391 38658 38418 38465 1 
#T 22 0 46441 46441 1 
#T 19 0 57471 57476 57471 57476 1 
#T 38 0 69669 1 
#T 8 0 9064 9089 69716 9137 9266 69769 9320 9513 69795 9540 9543 69842 9591 69868 9618 9621 69894 9648 9660 69926 9693 9705 69952 9732 9756 69978 9783 9801 70016 9840 9876 79178 1 
#T 18 0 85101 85102 85122 85149 85198 85248 85521 85557 85617 85644 85713 85740 85752 85779 85971 86082 86763 86790 87440 87506 87533 87758 87785 87795 87816 87857 87890 87929 87978 88105 88132 88400 88427 88896 88923 88952 88979 89012 89039 89054 89102 89108 89144 89153 1 
#T 368 0 85102 85122 89179 85149 85198 89228 85248 85521 89263 85557 85617 89289 85644 85713 89315 85740 85752 89341 85779 85971 89451 86082 86763 89477 86790 87440 89542 87506 89568 87533 87758 89594 87785 87795 89613 87816 87857 89645 87890 87929 89693 87978 88105 89719 88132 88400 89745 88427 88896 89771 88923 88952 89797 88979 89012 89823 89039 89054 89870 89102 89108 89905 89144 89153 95829 1 
# subpath constraints, in the format 'node1 node2 node3 ... '
# 0 subpath constraints for genome
#S 0 3351 
#S 3474 9064 9089 9137 9266 
#S 9320 9513 9540 9543 9591 9618 9621 9648 9660 9693 9705 9732 9756 9783 9801 9840 9876 
#S 3474 9064 
#S 3474 9064 
# 1 subpath constraints for genome
#S 0 1 
#S 0 1 
#S 0 1 
#S 0 1 
#S 0 1 
# 2 subpath constraints for genome
#S 0 29828 
#S 0 29828 
#S 0 29828 
#S 0 29828 
#S 0 29828 
# 3 subpath constraints for genome
#S 0 38388 
#S 0 38388 
#S 0 38388 38391 38418 38465 38388 38391 
#S 0 38388 
#S 0 38388 
# 4 subpath constraints for genome
#S 0 46441 
#S 0 46441 
#S 0 46441 
#S 46441 1 
#S 0 46441 
# 5 subpath constraints for genome
#S 0 57471 
#S 0 57471 
#S 57476 1 
#S 0 57471 
#S 0 57471 
# 6 subpath constraints for genome
#S 0 69669 
#S 0 69669 
#S 0 69669 
#S 0 69669 
#S 0 69669 
# 7 subpath constraints for genome
#S 9876 79178 
#S 9876 79178 
#S 9876 79178 
#S 9876 79178 
#S 9876 79178 
# 8 subpath constraints for genome
#S 0 85101 
#S 86082 86763 86790 87440 87506 87533 87758 
#S 86082 86763 86790 87440 
#S 88427 88896 88923 88952 88979 89012 89039 89054 89102 89108 89144 89153 
#S 85557 85617 85644 85713 85740 85752 85779 85971 86082 86763 
# 9 subpath constraints for genome
#S 89153 95829 
#S 89153 95829 
#S 89153 95829 
#S 85971 89451 86082 86763 89477 86790 87440 
#S 87816 87857 89645 87890 87929 89693 87978 88105 89719 88132 88400 89745 88427 88896 
165
3351 3372 14
3372 3387 20
3387 3414 9
3387 3571 8
3414 3422 19
3422 3474 10
3422 3351 6
3474 3372 7
3474 9064 12
3571 3414 2
9064 9089 15
9089 9137 5
9089 69716 6
9137 9266 9
9266 9320 4
9266 69769 9
9320 9513 22
9513 9540 9
9513 69795 7
9540 9543 7
9543 9591 11
9543 69842 7
9591 9618 6
9591 69868 7
9618 9621 13
9621 9648 3
9621 69894 10
9648 9660 16
9660 9693 4
9660 69926 7
9693 9705 21
9705 9732 7
9705 69952 6
9732 9756 11
9756 9783 4
9756 69978 7
9783 9801 14
9801 9840 5
9801 70016 6
9840 9876 14
9876 1 11
9876 79178 5
29828 1 100
38388 38391 154
38391 38418 74
38391 38658 65
38418 38465 147
38465 38388 75
38465 1 74
38658 38418 63
46441 46441 18
46441 1 29
57471 57476 35
57476 57471 19
57476 1 15
69669 1 24
69716 9137 9
69769 9320 6
69795 9540 8
69842 9591 10
69868 9618 5
69894 9648 5
69926 9693 9
69952 9732 9
69978 9783 13
70016 9840 10
79178 1 9
85101 85102 13
85102 85122 400
85122 85149 15
85122 89179 374
85149 85198 433
85198 85248 20
85198 89228 368
85248 85521 400
85521 85557 21
85521 89263 400
85557 85617 402
85617 85644 16
85617 89289 352
85644 85713 370
85713 85740 13
85713 89315 343
85740 85752 381
85752 85779 21
85752 89341 403
85779 85971 415
85971 86082 12
85971 89451 392
86082 86763 374
86763 86790 20
86763 89477 340
86790 87440 368
87440 87506 20
87440 89542 337
87506 87533 24
87506 89568 386
87533 87758 391
87758 87785 20
87758 89594 333
87785 87795 415
87795 87816 18
87795 89613 384
87816 87857 373
87857 87890 14
87857 89645 361
87890 87929 379
87929 87978 22
87929 89693 326
87978 88105 381
88105 88132 22
88105 89719 360
88132 88400 365
88400 88427 18
88400 89745 369
88427 88896 382
88896 88923 16
88896 89771 365
88923 88952 414
88952 88979 20
88952 89797 368
88979 89012 405
89012 89039 18
89012 89823 380
89039 89054 406
89054 89102 20
89054 89870 364
89102 89108 384
89108 89144 18
89108 89905 364
89144 89153 374
89153 1 19
89153 95829 338
89179 85149 409
89228 85248 367
89263 85557 377
89289 85644 389
89315 85740 402
89341 85779 343
89451 86082 363
89477 86790 352
89542 87506 366
89568 87533 402
89594 87785 359
89613 87816 376
89645 87890 352
89693 87978 384
89719 88132 372
89745 88427 384
89771 88923 349
89797 88979 373
89823 89039 383
89870 89102 341
89905 89144 352
95829 1 341
0 9064 11
0 85102 398
0 3351 5
0 1 16
0 29828 82
0 38388 77
0 46441 24
0 57471 30
0 69669 32
0 85101 11