#gt20.kmer63.(1050000.1100000).V47.E80.mincyc16.e1.0
#construct-flow-graph.py -o graphs-medium20-k63-cyc/ -g 20 -w 50000 -k 63 --mincycles 1 --nreads 5 --readlength 1000 -D medium20 --png
#kmersize=63
#windowsize=50000
#acyclic=False
#mincycles=1
#distribution=lognormal-44
#ngenomes=20
#nreads=5
#readlength=1000
#outdir=graphs-medium20-k63-cyc/
#pdf=False
#png=True
#erroreps=1.0
#dataset=medium20
#abundances=None
#unique source is 0, unique sink is 1
#genomes: GCF_000005845.2_ASM584v2_genomic.fna GCF_000009045.1_ASM904v1_genomic.fna GCF_000013285.1_ASM1328v1_genomic.fna GCF_000025905.1_ASM2590v1_genomic.fna GCF_000092125.1_ASM9212v1_genomic.fna GCF_000143845.1_ASM14384v1_genomic.fna GCF_000159115.1_ASM15911v1_genomic.fna GCF_000175375.1_ASM17537v1_genomic.fna GCF_000184345.1_ASM18434v2_genomic.fna GCF_000185725.2_Segn_rugo_CDC_945_V2_genomic.fna GCF_000196035.1_ASM19603v1_genomic.fna GCF_000265425.1_ASM26542v1_genomic.fna GCF_000325705.1_ASM32570v1_genomic.fna GCF_000376705.1_ASM37670v1_genomic.fna GCF_003999335.1_ASM399933v1_genomic.fna GCF_008632635.1_ASM863263v1_genomic.fna GCF_017638885.1_ASM1763888v1_genomic.fna GCF_019704535.1_ASM1970453v1_genomic.fna GCF_019890915.1_ASM1989091v1_genomic.fna GCF_900638215.1_56553_A01_genomic.fna 
# ground truth paths, in the format 'weight node1 node2 node3 ... '
#T 49 0 46962 46979 46980 47057 46979 46980 47057 46962 46979 46980 47057 46962 46979 46980 1 
#T 12 0 1 
#T 80 0 149539 1 
#T 60 0 199478 1 
#T 44 0 249417 1 
#T 71 0 299356 1 
#T 59 0 330964 330991 330964 330991 332462 332489 332462 332489 332739 332766 332739 332766 1 
#T 16 0 399150 1 
#T 37 0 449089 1 
#T 135 0 464771 464777 464771 464777 472609 472612 472609 472612 487168 487186 487168 487186 1 
#T 16 0 548937 1 
#T 73 0 598876 1 
#T 19 0 610182 610208 610414 610428 610182 610208 610578 610414 610428 629711 629734 629824 629849 629921 629711 629734 630199 629824 629849 630280 629921 629711 629734 630199 1 
#T 159 0 698359 1 
#T 25 0 748298 1 
#T 30 0 798237 1 
#T 29 0 836428 837609 836428 837609 1 
#T 11 0 896933 1 
#T 21 0 934194 934227 934194 934227 1 
#T 54 0 996777 1 
# subpath constraints, in the format 'node1 node2 node3 ... '
# 0 subpath constraints for genome
#S 0 46962 
#S 0 46962 
#S 0 46962 
#S 0 46962 
#S 0 46962 
# 1 subpath constraints for genome
#S 0 1 
#S 0 1 
#S 0 1 
#S 0 1 
#S 0 1 
# 2 subpath constraints for genome
#S 0 149539 
#S 0 149539 
#S 0 149539 
#S 0 149539 
#S 0 149539 
# 3 subpath constraints for genome
#S 0 199478 
#S 0 199478 
#S 0 199478 
#S 0 199478 
#S 0 199478 
# 4 subpath constraints for genome
#S 0 249417 
#S 0 249417 
#S 0 249417 
#S 0 249417 
#S 0 249417 
# 5 subpath constraints for genome
#S 0 299356 
#S 0 299356 
#S 0 299356 
#S 0 299356 
#S 0 299356 
# 6 subpath constraints for genome
#S 0 330964 
#S 332766 1 
#S 0 330964 
#S 0 330964 
#S 0 330964 330991 330964 330991 332462 
# 7 subpath constraints for genome
#S 0 399150 
#S 0 399150 
#S 0 399150 
#S 0 399150 
#S 0 399150 
# 8 subpath constraints for genome
#S 0 449089 
#S 0 449089 
#S 0 449089 
#S 0 449089 
#S 0 449089 
# 9 subpath constraints for genome
#S 472612 487168 
#S 472612 487168 
#S 472612 487168 487186 487168 487186 1 
#S 0 464771 
#S 464777 472609 
# 10 subpath constraints for genome
#S 0 548937 
#S 0 548937 
#S 0 548937 
#S 0 548937 
#S 0 548937 
# 11 subpath constraints for genome
#S 0 598876 
#S 0 598876 
#S 0 598876 
#S 0 598876 
#S 0 598876 
# 12 subpath constraints for genome
#S 610428 629711 
#S 610428 629711 
#S 0 610182 
#S 630199 1 
#S 630199 1 
# 13 subpath constraints for genome
#S 0 698359 
#S 0 698359 
#S 0 698359 
#S 0 698359 
#S 0 698359 
# 14 subpath constraints for genome
#S 0 748298 
#S 0 748298 
#S 0 748298 
#S 0 748298 
#S 0 748298 
# 15 subpath constraints for genome
#S 0 798237 
#S 0 798237 
#S 0 798237 
#S 0 798237 
#S 0 798237 
# 16 subpath constraints for genome
#S 0 836428 
#S 0 836428 
#S 0 836428 
#S 0 836428 
#S 0 836428 
# 17 subpath constraints for genome
#S 0 896933 
#S 0 896933 
#S 0 896933 
#S 0 896933 
#S 0 896933 
# 18 subpath constraints for genome
#S 0 934194 
#S 934227 1 
#S 0 934194 
#S 0 934194 
#S 0 934194 934227 934194 
# 19 subpath constraints for genome
#S 0 996777 
#S 0 996777 
#S 0 996777 
#S 0 996777 
#S 0 996777 
80
46962 46979 147
46979 46980 196
46980 47057 147
46980 1 49
47057 46979 49
47057 46962 98
149539 1 80
199478 1 60
249417 1 44
299356 1 71
330964 330991 118
330991 330964 59
330991 332462 59
332462 332489 118
332489 332462 59
332489 332739 59
332739 332766 118
332766 332739 59
332766 1 59
399150 1 16
449089 1 37
464771 464777 270
464777 464771 135
464777 472609 135
472609 472612 270
472612 472609 135
472612 487168 135
487168 487186 270
487186 487168 135
487186 1 135
548937 1 16
598876 1 73
610182 610208 38
610208 610414 19
610208 610578 19
610414 610428 38
610428 610182 19
610428 629711 19
610578 610414 19
629711 629734 57
629734 629824 19
629734 630199 38
629824 629849 38
629849 629921 19
629849 630280 19
629921 629711 38
630199 629824 19
630199 1 19
630280 629921 19
698359 1 159
748298 1 25
798237 1 30
836428 837609 58
837609 836428 29
837609 1 29
896933 1 11
934194 934227 42
934227 934194 21
934227 1 21
996777 1 54
0 46962 49
0 1 12
0 149539 80
0 199478 60
0 249417 44
0 299356 71
0 330964 59
0 399150 16
0 449089 37
0 464771 135
0 548937 16
0 598876 73
0 610182 19
0 698359 159
0 748298 25
0 798237 30
0 836428 29
0 896933 11
0 934194 21
0 996777 54