#gt20.kmer63.(50000.100000).V61.E96.mincyc100.e1.0
#construct-flow-graph.py -o graphs-medium20-k63-cyc/ -g 20 -w 50000 -k 63 --mincycles 1 --nreads 5 --readlength 1000 -D medium20 --png
#kmersize=63
#windowsize=50000
#acyclic=False
#mincycles=1
#distribution=lognormal-44
#ngenomes=20
#nreads=5
#readlength=1000
#outdir=graphs-medium20-k63-cyc/
#pdf=False
#png=True
#erroreps=1.0
#dataset=medium20
#abundances=None
#unique source is 0, unique sink is 1
#genomes: GCF_000005845.2_ASM584v2_genomic.fna GCF_000009045.1_ASM904v1_genomic.fna GCF_000013285.1_ASM1328v1_genomic.fna GCF_000025905.1_ASM2590v1_genomic.fna GCF_000092125.1_ASM9212v1_genomic.fna GCF_000143845.1_ASM14384v1_genomic.fna GCF_000159115.1_ASM15911v1_genomic.fna GCF_000175375.1_ASM17537v1_genomic.fna GCF_000184345.1_ASM18434v2_genomic.fna GCF_000185725.2_Segn_rugo_CDC_945_V2_genomic.fna GCF_000196035.1_ASM19603v1_genomic.fna GCF_000265425.1_ASM26542v1_genomic.fna GCF_000325705.1_ASM32570v1_genomic.fna GCF_000376705.1_ASM37670v1_genomic.fna GCF_003999335.1_ASM399933v1_genomic.fna GCF_008632635.1_ASM863263v1_genomic.fna GCF_017638885.1_ASM1763888v1_genomic.fna GCF_019704535.1_ASM1970453v1_genomic.fna GCF_019890915.1_ASM1989091v1_genomic.fna GCF_900638215.1_56553_A01_genomic.fna 
# ground truth paths, in the format 'weight node1 node2 node3 ... '
#T 49 0 16608 16630 16608 16630 1 
#T 12 0 90358 90621 90724 90855 90918 91502 91517 92375 92438 94000 90358 90621 96315 90724 90855 96377 90918 91502 91517 92375 96439 92438 94000 1 
#T 80 0 118906 118910 118973 119016 119079 119145 119208 91502 91517 120445 120508 120918 120981 122052 122116 122182 122245 123412 123475 123686 118906 118910 128782 118973 119016 128844 119079 119145 128906 119208 91502 91517 120445 128968 120508 120918 129030 120981 122052 129093 122116 122182 129155 122245 123412 129217 123475 123686 1 
#T 60 0 1 
#T 44 0 195058 195074 195058 195074 195058 195074 1 
#T 71 0 291823 1 
#T 59 0 341762 1 
#T 16 0 391701 1 
#T 37 0 441640 1 
#T 135 0 491579 1 
#T 16 0 541518 1 
#T 73 0 591457 1 
#T 19 0 641396 1 
#T 159 0 691335 1 
#T 25 0 741274 1 
#T 30 0 791213 1 
#T 29 0 822208 822237 822208 822237 1 
#T 11 0 891061 1 
#T 21 0 941000 1 
#T 54 0 990939 1 
# subpath constraints, in the format 'node1 node2 node3 ... '
# 0 subpath constraints for genome
#S 16630 1 
#S 16630 1 
#S 16630 1 
#S 16630 1 
#S 16630 1 
# 1 subpath constraints for genome
#S 0 90358 
#S 91517 92375 92438 94000 
#S 0 90358 
#S 0 90358 
#S 94000 90358 90621 96315 90724 90855 96377 90918 91502 
# 2 subpath constraints for genome
#S 120981 122052 129093 122116 122182 129155 122245 123412 
#S 0 118906 
#S 0 118906 
#S 122245 123412 129217 123475 123686 1 
#S 123686 118906 
# 3 subpath constraints for genome
#S 0 1 
#S 0 1 
#S 0 1 
#S 0 1 
#S 0 1 
# 4 subpath constraints for genome
#S 195074 1 
#S 195074 1 
#S 195074 1 
#S 195074 1 
#S 195074 1 
# 5 subpath constraints for genome
#S 0 291823 
#S 0 291823 
#S 0 291823 
#S 0 291823 
#S 0 291823 
# 6 subpath constraints for genome
#S 0 341762 
#S 0 341762 
#S 0 341762 
#S 0 341762 
#S 0 341762 
# 7 subpath constraints for genome
#S 0 391701 
#S 0 391701 
#S 0 391701 
#S 0 391701 
#S 0 391701 
# 8 subpath constraints for genome
#S 0 441640 
#S 0 441640 
#S 0 441640 
#S 0 441640 
#S 0 441640 
# 9 subpath constraints for genome
#S 0 491579 
#S 0 491579 
#S 0 491579 
#S 0 491579 
#S 0 491579 
# 10 subpath constraints for genome
#S 0 541518 
#S 0 541518 
#S 0 541518 
#S 0 541518 
#S 0 541518 
# 11 subpath constraints for genome
#S 0 591457 
#S 0 591457 
#S 0 591457 
#S 0 591457 
#S 0 591457 
# 12 subpath constraints for genome
#S 0 641396 
#S 0 641396 
#S 0 641396 
#S 0 641396 
#S 0 641396 
# 13 subpath constraints for genome
#S 0 691335 
#S 0 691335 
#S 0 691335 
#S 0 691335 
#S 0 691335 
# 14 subpath constraints for genome
#S 0 741274 
#S 0 741274 
#S 0 741274 
#S 0 741274 
#S 0 741274 
# 15 subpath constraints for genome
#S 0 791213 
#S 0 791213 
#S 0 791213 
#S 0 791213 
#S 0 791213 
# 16 subpath constraints for genome
#S 822237 1 
#S 0 822208 
#S 822237 1 
#S 0 822208 
#S 822237 1 
# 17 subpath constraints for genome
#S 0 891061 
#S 0 891061 
#S 0 891061 
#S 0 891061 
#S 0 891061 
# 18 subpath constraints for genome
#S 0 941000 
#S 0 941000 
#S 0 941000 
#S 0 941000 
#S 0 941000 
# 19 subpath constraints for genome
#S 0 990939 
#S 0 990939 
#S 0 990939 
#S 0 990939 
#S 0 990939 
96
16608 16630 98
16630 16608 49
16630 1 49
90358 90621 24
90621 90724 12
90621 96315 12
90724 90855 24
90855 90918 12
90855 96377 12
90918 91502 24
91502 91517 184
91517 92375 24
91517 120445 160
92375 92438 12
92375 96439 12
92438 94000 24
94000 1 12
94000 90358 12
96315 90724 12
96377 90918 12
96439 92438 12
118906 118910 160
118910 118973 80
118910 128782 80
118973 119016 160
119016 119079 80
119016 128844 80
119079 119145 160
119145 119208 80
119145 128906 80
119208 91502 160
120445 120508 80
120445 128968 80
120508 120918 160
120918 120981 80
120918 129030 80
120981 122052 160
122052 122116 80
122052 129093 80
122116 122182 160
122182 122245 80
122182 129155 80
122245 123412 160
123412 123475 80
123412 129217 80
123475 123686 160
123686 118906 80
123686 1 80
128782 118973 80
128844 119079 80
128906 119208 80
128968 120508 80
129030 120981 80
129093 122116 80
129155 122245 80
129217 123475 80
195058 195074 132
195074 195058 88
195074 1 44
291823 1 71
341762 1 59
391701 1 16
441640 1 37
491579 1 135
541518 1 16
591457 1 73
641396 1 19
691335 1 159
741274 1 25
791213 1 30
822208 822237 58
822237 822208 29
822237 1 29
891061 1 11
941000 1 21
990939 1 54
0 16608 49
0 90358 12
0 118906 80
0 1 60
0 195058 44
0 291823 71
0 341762 59
0 391701 16
0 441640 37
0 491579 135
0 541518 16
0 591457 73
0 641396 19
0 691335 159
0 741274 25
0 791213 30
0 822208 29
0 891061 11
0 941000 21
0 990939 54