#gt5.kmer27.(950000.1000000).V321.E433.mincyc7.e1.0
#construct-flow-graph.py -o graphs-g5-w50000-k27-cyc/ -g 5 -w 50000 -k 27 --mincycles 1 --nreads 5 --readlength 1000 --distribution lognormal11 --pdf
#kmersize=27
#windowsize=50000
#acyclic=False
#mincycles=1
#distribution=lognormal11
#ngenomes=5
#nreads=5
#readlength=1000
#outdir=graphs-g5-w50000-k27-cyc/
#pdf=True
#erroreps=1.0
#unique source is 0, unique sink is 1
#genomes: GCA_000005845.2_ASM584v2.fna GCA_000006665.1_ASM666v1.fna GCA_000007445.1_ASM744v1.fna GCA_000008865.2_ASM886v2.fna GCA_000009565.2_ASM956v1.fna 
# ground truth paths, in the format 'weight node1 node2 node3 ... '
#T 209 0 2 999 1026 2680 2707 4061 4088 4788 4809 8056 8173 8635 8662 8713 8740 8962 8989 9182 9209 9260 9287 9722 9749 9809 9836 9854 9890 9896 9923 10897 10924 12899 12926 13116 13143 15476 15503 23889 23943 25695 25722 25803 25830 25839 25875 26472 26499 26657 26687 26816 26843 26969 26996 27029 27056 27068 27095 27098 27125 27183 27210 27302 27329 27404 27431 27435 27479 27566 27593 27615 27642 31050 31077 32092 32119 33547 33574 33599 33630 34301 34328 35772 35799 35998 36025 36388 36415 36526 36571 36823 36865 37085 37112 37149 37171 37430 37457 38895 38922 38949 39195 39222 39267 39294 39498 39525 40160 40187 40245 40272 40842 40869 40908 40935 41046 41097 41268 41295 41397 41424 41526 41553 41964 41997 42009 42036 42156 42183 44893 49976 1 
#T 89 0 51628 51629 52378 52405 53618 53645 53879 53906 57597 57624 60082 60109 62306 62332 63159 63186 63271 63298 63551 63577 64759 64786 69376 69403 72040 72067 72291 72318 73165 73192 74069 74096 76958 76985 78170 78197 78407 78434 78978 79005 81695 81731 81752 81788 85002 85028 88921 88948 89726 89753 90107 90134 91827 91854 93986 94013 98780 98807 98831 98858 99951 1 
#T 33 0 104186 104187 104186 104187 139557 139562 139578 139557 139562 139611 139615 139616 139617 139632 139634 139611 139615 139632 139634 139578 139616 139617 149043 149059 149086 149184 149211 149233 149260 149412 149439 149680 149721 149787 149844 149873 149906 149907 1 
#T 22 0 51629 52378 149933 52405 53618 149959 53645 53879 149985 53906 57597 150011 57624 60082 150037 60109 62306 150061 62332 63159 150087 63186 63271 150113 63298 63551 150137 63577 64759 150163 64786 69376 150189 69403 72040 150215 72067 72291 150241 72318 73165 150266 73192 74069 150292 74096 76958 150318 76985 78170 150344 78197 78407 150370 78434 78978 150396 79005 81695 150430 81731 81752 150465 81788 85002 150489 85028 88921 150515 88948 89726 150541 89753 90107 150567 90134 91827 150593 91854 93986 150619 94013 98780 150645 98807 98831 150671 98858 99951 152328 1 
#T 21 0 149043 149059 152366 149086 149184 152392 149211 149233 152418 149260 149412 152444 149439 149680 152485 149721 149787 152541 149844 149873 152572 149906 149907 2 999 156806 1026 2680 156832 2707 4061 156858 4088 4788 156877 4809 8056 156993 8173 8635 157019 8662 8713 157045 8740 8962 157071 8989 9182 157097 9209 9260 157123 9287 9722 157149 9749 9809 157175 9836 9854 157210 9890 9896 157236 9923 10897 157262 10924 12899 157288 12926 13116 157314 13143 15476 157340 15503 23889 157393 23943 25695 157419 25722 25803 157445 25830 25839 157480 25875 26472 157506 26499 26657 157535 26687 26816 157561 26843 26969 157587 26996 27029 157613 27056 27068 157639 27095 27098 157665 27125 27183 157691 27210 27302 157717 27329 27404 157743 27431 27435 157786 27479 27566 157812 27593 27615 157838 27642 31050 157864 31077 32092 157890 32119 33547 157916 33574 33599 157946 33630 34301 157972 34328 35772 157998 35799 35998 158024 36025 36388 158050 36415 36526 158094 36571 36823 158135 36865 37085 158161 37112 37149 158181 37171 37430 158207 37457 38895 158233 38922 158259 38949 39195 158285 39222 39267 158311 39294 39498 158337 39525 40160 158363 40187 40245 158389 40272 40842 158415 40869 40908 158441 40935 41046 158491 41097 41268 158517 41295 41397 158543 41424 41526 158569 41553 41964 158601 41997 42009 158627 42036 42156 158653 42183 44893 1 
# subpath constraints, in the format 'node1 node2 node3 ... '
# 0 subpath constraints for genome
#S 15503 23889 
#S 42183 44893 49976 
#S 15503 23889 
#S 37457 38895 38922 38949 39195 39222 39267 39294 39498 39525 40160 
#S 9923 10897 10924 12899 
# 1 subpath constraints for genome
#S 53906 57597 
#S 64786 69376 
#S 73192 74069 74096 76958 
#S 0 51628 
#S 94013 98780 98807 
# 2 subpath constraints for genome
#S 104187 139557 139562 139578 139557 139562 139611 139615 139616 139617 139632 
#S 0 104186 104187 104186 
#S 104187 139557 
#S 0 104186 
#S 139617 149043 
# 3 subpath constraints for genome
#S 85028 88921 
#S 64786 69376 
#S 74096 76958 
#S 53906 57597 
#S 73192 74069 150292 74096 76958 
# 4 subpath constraints for genome
#S 15503 23889 
#S 23943 25695 
#S 36025 36388 158050 36415 36526 158094 36571 36823 158135 36865 37085 158161 37112 37149 158181 37171 37430 
#S 27642 31050 
#S 149907 2 
433
2 999 251
999 1026 203
999 156806 20
1026 2680 235
2680 2707 207
2680 156832 16
2707 4061 219
4061 4088 220
4061 156858 16
4088 4788 230
4788 4809 213
4788 156877 19
4809 8056 209
8056 8173 205
8056 156993 16
8173 8635 212
8635 8662 192
8635 157019 23
8662 8713 242
8713 8740 209
8713 157045 26
8740 8962 204
8962 8989 195
8962 157071 20
8989 9182 219
9182 9209 175
9182 157097 17
9209 9260 224
9260 9287 211
9260 157123 22
9287 9722 258
9722 9749 221
9722 157149 29
9749 9809 228
9809 9836 228
9809 157175 19
9836 9854 219
9854 9890 213
9854 157210 27
9890 9896 237
9896 9923 198
9896 157236 21
9923 10897 231
10897 10924 206
10897 157262 19
10924 12899 223
12899 12926 205
12899 157288 22
12926 13116 235
13116 13143 206
13116 157314 19
13143 15476 226
15476 15503 204
15476 157340 29
15503 23889 214
23889 23943 217
23889 157393 17
23943 25695 235
25695 25722 212
25695 157419 19
25722 25803 219
25803 25830 201
25803 157445 18
25830 25839 244
25839 25875 207
25839 157480 16
25875 26472 215
26472 26499 230
26472 157506 18
26499 26657 229
26657 26687 208
26657 157535 23
26687 26816 245
26816 26843 225
26816 157561 25
26843 26969 235
26969 26996 185
26969 157587 23
26996 27029 240
27029 27056 200
27029 157613 24
27056 27068 217
27068 27095 222
27068 157639 29
27095 27098 251
27098 27125 207
27098 157665 23
27125 27183 238
27183 27210 201
27183 157691 18
27210 27302 208
27302 27329 245
27302 157717 25
27329 27404 226
27404 27431 211
27404 157743 18
27431 27435 204
27435 27479 196
27435 157786 25
27479 27566 228
27566 27593 226
27566 157812 19
27593 27615 225
27615 27642 179
27615 157838 21
27642 31050 232
31050 31077 239
31050 157864 16
31077 32092 232
32092 32119 208
32092 157890 16
32119 33547 229
33547 33574 198
33547 157916 19
33574 33599 233
33599 33630 227
33599 157946 39
33630 34301 236
34301 34328 227
34301 157972 25
34328 35772 223
35772 35799 205
35772 157998 27
35799 35998 211
35998 36025 203
35998 158024 25
36025 36388 236
36388 36415 196
36388 158050 19
36415 36526 200
36526 36571 219
36526 158094 25
36571 36823 234
36823 36865 216
36823 158135 14
36865 37085 237
37085 37112 208
37085 158161 26
37112 37149 250
37149 37171 200
37149 158181 18
37171 37430 208
37430 37457 190
37430 158207 19
37457 38895 233
38895 38922 220
38895 158233 23
38922 38949 211
38922 158259 21
38949 39195 227
39195 39222 189
39195 158285 17
39222 39267 246
39267 39294 206
39267 158311 19
39294 39498 231
39498 39525 199
39498 158337 24
39525 40160 221
40160 40187 224
40160 158363 22
40187 40245 240
40245 40272 212
40245 158389 22
40272 40842 208
40842 40869 179
40842 158415 25
40869 40908 214
40908 40935 185
40908 158441 26
40935 41046 238
41046 41097 206
41046 158491 26
41097 41268 229
41268 41295 188
41268 158517 22
41295 41397 256
41397 41424 211
41397 158543 17
41424 41526 238
41526 41553 192
41526 158569 32
41553 41964 213
41964 41997 217
41964 158601 31
41997 42009 221
42009 42036 209
42009 158627 18
42036 42156 216
42156 42183 190
42156 158653 21
42183 44893 237
44893 1 30
44893 49976 190
49976 1 218
51628 51629 84
51629 52378 98
52378 52405 81
52378 149933 20
52405 53618 122
53618 53645 74
53618 149959 15
53645 53879 106
53879 53906 111
53879 149985 20
53906 57597 102
57597 57624 90
57597 150011 27
57624 60082 102
60082 60109 104
60082 150037 27
60109 62306 105
62306 62332 83
62306 150061 23
62332 63159 115
63159 63186 89
63159 150087 19
63186 63271 107
63271 63298 78
63271 150113 31
63298 63551 101
63551 63577 103
63551 150137 18
63577 64759 102
64759 64786 75
64759 150163 14
64786 69376 94
69376 69403 89
69376 150189 21
69403 72040 106
72040 72067 109
72040 150215 17
72067 72291 117
72291 72318 71
72291 150241 23
72318 73165 102
73165 73192 83
73165 150266 26
73192 74069 116
74069 74096 81
74069 150292 17
74096 76958 110
76958 76985 98
76958 150318 20
76985 78170 108
78170 78197 62
78170 150344 21
78197 78407 120
78407 78434 80
78407 150370 23
78434 78978 106
78978 79005 80
78978 150396 20
79005 81695 112
81695 81731 72
81695 150430 30
81731 81752 108
81752 81788 84
81752 150465 22
81788 85002 100
85002 85028 87
85002 150489 15
85028 88921 115
88921 88948 80
88921 150515 20
88948 89726 106
89726 89753 90
89726 150541 32
89753 90107 94
90107 90134 80
90107 150567 14
90134 91827 95
91827 91854 88
91827 150593 26
91854 93986 115
93986 94013 83
93986 150619 27
94013 98780 112
98780 98807 92
98780 150645 23
98807 98831 99
98831 98858 77
98831 150671 29
98858 99951 113
99951 1 93
99951 152328 21
104186 104187 64
104187 104186 35
104187 139557 28
139557 139562 58
139562 139578 35
139562 139611 22
139578 139557 26
139578 139616 37
139611 139615 89
139615 139616 32
139615 139632 25
139616 139617 68
139617 139632 29
139617 149043 33
139632 139634 60
139634 139611 28
139634 139578 30
149043 149059 44
149059 149086 35
149059 152366 27
149086 149184 59
149184 149211 35
149184 152392 24
149211 149233 63
149233 149260 31
149233 152418 21
149260 149412 60
149412 149439 45
149412 152444 19
149439 149680 46
149680 149721 31
149680 152485 24
149721 149787 48
149787 149844 32
149787 152541 17
149844 149873 53
149873 149906 28
149873 152572 21
149906 149907 59
149907 1 31
149907 2 27
149933 52405 26
149959 53645 16
149985 53906 25
150011 57624 27
150037 60109 27
150061 62332 33
150087 63186 26
150113 63298 23
150137 63577 34
150163 64786 18
150189 69403 17
150215 72067 21
150241 72318 26
150266 73192 19
150292 74096 17
150318 76985 17
150344 78197 26
150370 78434 20
150396 79005 19
150430 81731 19
150465 81788 27
150489 85028 15
150515 88948 27
150541 89753 21
150567 90134 16
150593 91854 17
150619 94013 23
150645 98807 16
150671 98858 24
152328 1 20
152366 149086 22
152392 149211 24
152418 149260 29
152444 149439 21
152485 149721 24
152541 149844 23
152572 149906 17
156806 1026 18
156832 2707 18
156858 4088 21
156877 4809 17
156993 8173 12
157019 8662 22
157045 8740 18
157071 8989 28
157097 9209 29
157123 9287 23
157149 9749 23
157175 9836 23
157210 9890 18
157236 9923 27
157262 10924 30
157288 12926 18
157314 13143 21
157340 15503 28
157393 23943 36
157419 25722 24
157445 25830 23
157480 25875 25
157506 26499 17
157535 26687 18
157561 26843 16
157587 26996 22
157613 27056 22
157639 27095 15
157665 27125 19
157691 27210 18
157717 27329 26
157743 27431 18
157786 27479 18
157812 27593 17
157838 27642 21
157864 31077 20
157890 32119 25
157916 33574 19
157946 33630 24
157972 34328 16
157998 35799 26
158024 36025 25
158050 36415 18
158094 36571 25
158135 36865 27
158161 37112 22
158181 37171 18
158207 37457 22
158233 38922 12
158259 38949 19
158285 39222 20
158311 39294 18
158337 39525 14
158363 40187 20
158389 40272 17
158415 40869 21
158441 40935 17
158491 41097 32
158517 41295 18
158543 41424 16
158569 41553 16
158601 41997 29
158627 42036 33
158653 42183 20
0 2 243
0 51629 23
0 51628 92
0 104186 30
0 149043 16