#gt5.kmer27.(3550000.3600000).V45.E70.mincyc100.e1.0
#construct-flow-graph.py -o graphs-g5-w50000-k27-cyc/ -g 5 -w 50000 -k 27 --mincycles 1 --nreads 5 --readlength 1000 --distribution lognormal11 --pdf
#kmersize=27
#windowsize=50000
#acyclic=False
#mincycles=1
#distribution=lognormal11
#ngenomes=5
#nreads=5
#readlength=1000
#outdir=graphs-g5-w50000-k27-cyc/
#pdf=True
#erroreps=1.0
#unique source is 0, unique sink is 1
#genomes: GCA_000005845.2_ASM584v2.fna GCA_000006665.1_ASM666v1.fna GCA_000007445.1_ASM744v1.fna GCA_000008865.2_ASM886v2.fna GCA_000009565.2_ASM956v1.fna 
# ground truth paths, in the format 'weight node1 node2 node3 ... '
#T 38 0 13582 13586 46888 13582 13586 48457 48464 48467 46888 1 
#T 65 0 57684 57687 57684 57687 57684 57687 57684 57687 57684 57687 57684 57687 57684 57687 59056 59058 59056 59058 59056 59058 59056 59058 59056 59058 59056 59058 59056 59058 59056 59058 59056 59058 59056 59058 59056 59058 59056 59058 59056 59058 59056 59058 48464 48464 1 
#T 43 0 1 
#T 105 0 48457 48464 48467 198209 198212 198213 198209 198212 198209 198212 198213 1 
#T 7 0 210865 210881 210895 210912 210922 210939 210945 210972 210993 211028 211029 211047 211052 211099 211109 211150 211177 211181 211209 211221 211234 211263 211337 210881 210895 210922 210939 210945 211415 210972 210993 211442 211047 211052 211514 211099 211109 211150 211540 211177 211181 211221 211234 211607 211263 211337 210865 210881 210895 210912 210939 210945 210972 210993 211442 211028 211029 211109 211150 211177 211181 211209 219825 219907 219825 219907 1 
# subpath constraints, in the format 'node1 node2 node3 ... '
# 0 subpath constraints for genome
#S 13586 46888 
#S 13586 46888 
#S 13586 46888 
#S 13586 46888 
#S 13586 46888 
# 1 subpath constraints for genome
#S 59058 48464 48464 
#S 59058 48464 
#S 59058 48464 
#S 59058 48464 
#S 48464 48464 1 
# 2 subpath constraints for genome
#S 0 1 
#S 0 1 
#S 0 1 
#S 0 1 
#S 0 1 
# 3 subpath constraints for genome
#S 48467 198209 
#S 48467 198209 
#S 48467 198209 
#S 48467 198209 
#S 48467 198209 
# 4 subpath constraints for genome
#S 219907 1 
#S 219907 1 
#S 0 210865 
#S 219907 1 
#S 0 210865 
70
13582 13586 68
13586 46888 22
13586 48457 37
46888 13582 44
46888 1 36
48457 48464 136
48464 48467 152
48464 48464 52
48464 1 62
48467 46888 34
48467 198209 116
57684 57687 433
57687 57684 380
57687 59056 58
59056 59058 905
59058 59056 819
59058 48464 60
198209 198212 311
198212 198213 204
198212 198209 112
198213 198209 110
198213 1 116
210865 210881 13
210881 210895 24
210895 210912 14
210895 210922 6
210912 210922 5
210912 210939 5
210922 210939 12
210939 210945 20
210945 210972 18
210945 211415 9
210972 210993 19
210993 211028 5
210993 211442 16
211028 211029 12
211029 211047 4
211029 211109 7
211047 211052 13
211052 211099 6
211052 211514 5
211099 211109 10
211109 211150 18
211150 211177 13
211150 211540 9
211177 211181 32
211181 211209 11
211181 211221 7
211209 211221 8
211209 219825 7
211221 211234 17
211234 211263 8
211234 211607 10
211263 211337 19
211337 210881 8
211337 210865 7
211415 210972 6
211442 211047 12
211442 211028 6
211514 211099 7
211540 211177 10
211607 211263 5
219825 219907 15
219907 219825 7
219907 1 7
0 13582 37
0 57684 82
0 1 41
0 48457 110
0 210865 7