#gt5.kmer27.(3350000.3400000).V20.E33.mincyc5.e1.0
#construct-flow-graph.py -o graphs-g5-w50000-k27-cyc/ -g 5 -w 50000 -k 27 --mincycles 1 --nreads 5 --readlength 1000 --distribution lognormal11 --pdf
#kmersize=27
#windowsize=50000
#acyclic=False
#mincycles=1
#distribution=lognormal11
#ngenomes=5
#nreads=5
#readlength=1000
#outdir=graphs-g5-w50000-k27-cyc/
#pdf=True
#erroreps=1.0
#unique source is 0, unique sink is 1
#genomes: GCA_000005845.2_ASM584v2.fna GCA_000006665.1_ASM666v1.fna GCA_000007445.1_ASM744v1.fna GCA_000008865.2_ASM886v2.fna GCA_000009565.2_ASM956v1.fna 
# ground truth paths, in the format 'weight node1 node2 node3 ... '
#T 22 0 42071 42078 42123 42144 42171 42123 42144 42226 42237 42171 42123 42144 42226 42071 42078 1 
#T 188 0 83484 1 
#T 55 0 124386 124392 124457 124461 127603 127607 127603 127607 124457 42237 42171 1 
#T 19 0 182961 83484 199782 1 
#T 62 0 214230 182961 124386 124392 222718 124457 124461 1 
# subpath constraints, in the format 'node1 node2 node3 ... '
# 0 subpath constraints for genome
#S 0 42071 
#S 0 42071 
#S 42078 1 
#S 0 42071 42078 42123 42144 42171 42123 42144 42226 42237 42171 42123 42144 42226 42071 42078 1 
#S 0 42071 
# 1 subpath constraints for genome
#S 0 83484 
#S 0 83484 
#S 0 83484 
#S 0 83484 
#S 0 83484 
# 2 subpath constraints for genome
#S 124457 42237 
#S 124457 42237 
#S 124457 42237 
#S 124457 42237 
#S 124461 127603 
# 3 subpath constraints for genome
#S 0 182961 
#S 182961 83484 
#S 182961 83484 
#S 182961 83484 
#S 0 182961 83484 
# 4 subpath constraints for genome
#S 0 214230 
#S 124461 1 
#S 0 214230 
#S 182961 124386 
#S 0 214230 
33
42071 42078 44
42078 42123 21
42078 1 21
42123 42144 67
42144 42171 15
42144 42226 52
42171 42123 53
42171 1 40
42226 42237 19
42226 42071 33
42237 42171 73
83484 1 204
83484 199782 16
124386 124392 112
124392 124457 62
124392 222718 52
124457 124461 110
124457 42237 61
124461 127603 54
124461 1 51
127603 127607 95
127607 127603 55
127607 124457 59
182961 83484 12
182961 124386 51
199782 1 20
214230 182961 63
222718 124457 66
0 42071 26
0 83484 199
0 124386 61
0 182961 21
0 214230 55