#gt5.kmer27.(3900000.3950000).V74.E104.mincyc13.e1.0
#construct-flow-graph.py -o graphs-g5-w50000-k27-cyc/ -g 5 -w 50000 -k 27 --mincycles 1 --nreads 5 --readlength 1000 --distribution lognormal11 --pdf
#kmersize=27
#windowsize=50000
#acyclic=False
#mincycles=1
#distribution=lognormal11
#ngenomes=5
#nreads=5
#readlength=1000
#outdir=graphs-g5-w50000-k27-cyc/
#pdf=True
#erroreps=1.0
#unique source is 0, unique sink is 1
#genomes: GCA_000005845.2_ASM584v2.fna GCA_000006665.1_ASM666v1.fna GCA_000007445.1_ASM744v1.fna GCA_000008865.2_ASM886v2.fna GCA_000009565.2_ASM956v1.fna 
# ground truth paths, in the format 'weight node1 node2 node3 ... '
#T 58 0 41443 41515 41542 42008 42035 42784 42847 43339 43366 43369 43583 43656 43683 43761 43788 43815 43847 43942 43990 44219 44257 44889 44916 45152 45179 45810 45837 46203 46230 46609 46696 46807 1 
#T 51 0 52800 52807 52800 52807 57253 57254 57268 57275 57268 57275 60561 60563 97253 97258 1 
#T 10 0 100344 100347 100344 100347 1 
#T 12 0 184115 184139 184194 184239 184272 184286 184313 184325 184115 184139 184544 184194 184239 184576 184272 184286 184602 184313 184325 60561 60563 57253 57254 1 
#T 16 0 201041 201041 97253 97258 41443 41515 241767 41542 42008 241793 42035 42784 241855 42847 43339 241881 43366 43369 242186 43583 43656 242212 43683 43761 242238 43788 43815 242269 43847 43942 242316 43990 44219 242353 44257 44889 242379 44916 45152 242405 45179 45810 242431 45837 46203 242457 46230 46609 242637 46696 46807 245090 1 
# subpath constraints, in the format 'node1 node2 node3 ... '
# 0 subpath constraints for genome
#S 0 41443 
#S 45837 46203 46230 46609 46696 46807 1 
#S 0 41443 
#S 0 41443 
#S 0 41443 
# 1 subpath constraints for genome
#S 60563 97253 
#S 60563 97253 
#S 60563 97253 
#S 60563 97253 
#S 60563 97253 
# 2 subpath constraints for genome
#S 100347 1 
#S 100347 1 
#S 100347 1 
#S 100347 1 
#S 100347 1 
# 3 subpath constraints for genome
#S 0 184115 
#S 57254 1 
#S 57254 1 
#S 57254 1 
#S 0 184115 
# 4 subpath constraints for genome
#S 97258 41443 
#S 201041 201041 
#S 201041 201041 
#S 45179 45810 242431 45837 46203 242457 46230 46609 
#S 201041 201041 
104
41443 41515 73
41515 41542 57
41515 241767 15
41542 42008 61
42008 42035 67
42008 241793 19
42035 42784 88
42784 42847 60
42784 241855 28
42847 43339 67
43339 43366 61
43339 241881 7
43366 43369 88
43369 43583 57
43369 242186 9
43583 43656 79
43656 43683 58
43656 242212 20
43683 43761 67
43761 43788 52
43761 242238 13
43788 43815 68
43815 43847 52
43815 242269 15
43847 43942 64
43942 43990 65
43942 242316 22
43990 44219 81
44219 44257 61
44219 242353 11
44257 44889 68
44889 44916 54
44889 242379 9
44916 45152 86
45152 45179 36
45152 242405 13
45179 45810 63
45810 45837 64
45810 242431 15
45837 46203 71
46203 46230 54
46203 242457 8
46230 46609 77
46609 46696 48
46609 242637 14
46696 46807 62
46807 1 61
46807 245090 18
52800 52807 91
52807 52800 32
52807 57253 50
57253 57254 62
57254 57268 33
57254 1 14
57268 57275 107
57275 57268 36
57275 60561 48
60561 60563 60
60563 97253 31
60563 57253 16
97253 97258 71
97258 1 62
97258 41443 15
100344 100347 22
100347 100344 11
100347 1 11
184115 184139 25
184139 184194 17
184139 184544 12
184194 184239 28
184239 184272 15
184239 184576 6
184272 184286 21
184286 184313 11
184286 184602 10
184313 184325 12
184325 184115 16
184325 60561 8
184544 184194 18
184576 184272 7
184602 184313 8
201041 201041 15
201041 97253 20
241767 41542 15
241793 42035 23
241855 42847 18
241881 43366 22
242186 43583 18
242212 43683 11
242238 43788 21
242269 43847 11
242316 43990 16
242353 44257 19
242379 44916 25
242405 45179 18
242431 45837 12
242457 46230 21
242637 46696 18
245090 1 16
0 41443 54
0 52800 40
0 100344 10
0 184115 18
0 201041 14