#gt5.kmer27.(2800000.2850000).V46.E70.mincyc70.e1.0
#construct-flow-graph.py -o graphs-g5-w50000-k27-cyc/ -g 5 -w 50000 -k 27 --mincycles 1 --nreads 5 --readlength 1000 --distribution lognormal11 --pdf
#kmersize=27
#windowsize=50000
#acyclic=False
#mincycles=1
#distribution=lognormal11
#ngenomes=5
#nreads=5
#readlength=1000
#outdir=graphs-g5-w50000-k27-cyc/
#pdf=True
#erroreps=1.0
#unique source is 0, unique sink is 1
#genomes: GCA_000005845.2_ASM584v2.fna GCA_000006665.1_ASM666v1.fna GCA_000007445.1_ASM744v1.fna GCA_000008865.2_ASM886v2.fna GCA_000009565.2_ASM956v1.fna 
# ground truth paths, in the format 'weight node1 node2 node3 ... '
#T 9 0 17776 17779 17784 17837 17845 17879 17891 17918 17966 17776 17779 17784 17837 17845 18082 17879 17891 18102 17918 17784 17837 17845 18102 17918 17966 17779 17784 17837 42165 1 
#T 63 0 55397 55399 55426 55455 55397 55399 57830 55426 55455 1 
#T 25 0 101622 101672 101736 101622 101672 101743 101736 101622 101672 101743 138443 42165 138470 138497 138501 138443 42165 138470 138567 138497 138501 1 
#T 8 0 178146 178164 178191 178199 178204 178232 178241 178269 178308 178350 178388 178456 178146 178164 178480 178191 178199 178232 178241 178558 178269 178308 178599 178350 178388 178666 178456 178480 178191 178199 178204 1 
#T 60 0 242565 242567 242565 242567 1 
# subpath constraints, in the format 'node1 node2 node3 ... '
# 0 subpath constraints for genome
#S 0 17776 
#S 0 17776 
#S 17837 42165 
#S 0 17776 
#S 17837 42165 
# 1 subpath constraints for genome
#S 55455 1 
#S 55455 1 
#S 55455 1 
#S 55455 1 
#S 55455 1 
# 2 subpath constraints for genome
#S 101743 138443 
#S 101743 138443 
#S 101743 138443 
#S 101743 138443 
#S 138501 1 
# 3 subpath constraints for genome
#S 178204 1 
#S 0 178146 
#S 0 178146 
#S 0 178146 
#S 178204 1 
# 4 subpath constraints for genome
#S 0 242565 
#S 0 242565 
#S 0 242565 242567 242565 242567 1 
#S 0 242565 
#S 0 242565 
70
17776 17779 19
17779 17784 30
17784 17837 29
17837 17845 29
17837 42165 14
17845 17879 11
17845 18082 11
17845 18102 8
17879 17891 19
17891 17918 5
17891 18102 8
17918 17966 15
17918 17784 3
17966 17776 12
17966 17779 13
18082 17879 3
18102 17918 17
42165 1 9
42165 138470 39
55397 55399 110
55399 55426 58
55399 57830 66
55426 55455 147
55455 55397 57
55455 1 50
57830 55426 58
101622 101672 83
101672 101736 27
101672 101743 45
101736 101622 62
101743 101736 30
101743 138443 21
138443 42165 47
138470 138497 18
138470 138567 22
138497 138501 52
138501 138443 28
138501 1 26
138567 138497 12
178146 178164 8
178164 178191 12
178164 178480 6
178191 178199 19
178199 178204 11
178199 178232 6
178204 178232 4
178204 1 8
178232 178241 13
178241 178269 10
178241 178558 10
178269 178308 12
178308 178350 5
178308 178599 5
178350 178388 21
178388 178456 10
178388 178666 9
178456 178146 14
178456 178480 8
178480 178191 21
178558 178269 7
178599 178350 12
178666 178456 5
242565 242567 101
242567 242565 56
242567 1 63
0 17776 7
0 55397 49
0 101622 26
0 178146 6
0 242565 58