#gt5.kmer27.(1650000.1700000).V52.E78.mincyc78.e1.0
#construct-flow-graph.py -o graphs-g5-w50000-k27-cyc/ -g 5 -w 50000 -k 27 --mincycles 1 --nreads 5 --readlength 1000 --distribution lognormal11 --pdf
#kmersize=27
#windowsize=50000
#acyclic=False
#mincycles=1
#distribution=lognormal11
#ngenomes=5
#nreads=5
#readlength=1000
#outdir=graphs-g5-w50000-k27-cyc/
#pdf=True
#erroreps=1.0
#unique source is 0, unique sink is 1
#genomes: GCA_000005845.2_ASM584v2.fna GCA_000006665.1_ASM666v1.fna GCA_000007445.1_ASM744v1.fna GCA_000008865.2_ASM886v2.fna GCA_000009565.2_ASM956v1.fna 
# ground truth paths, in the format 'weight node1 node2 node3 ... '
#T 142 0 1 
#T 12 0 54282 54296 54323 54359 54398 54407 54425 54282 54296 54323 54359 54455 54425 54282 54296 54534 54323 54359 54455 54398 54407 69656 69659 69713 69731 69758 69762 69656 69659 71976 69713 69731 72002 69758 69762 1 
#T 37 0 114793 114802 114805 114817 114826 114844 114871 114896 114922 114926 114947 114980 115007 115049 115063 115085 114793 114802 114805 114817 114826 114926 114947 115217 114980 115007 115258 115049 115063 114802 114805 114871 114896 115380 114922 114926 114947 115085 114817 114826 114844 1 
#T 21 0 152552 152565 152552 152565 178400 178417 178400 178417 1 
#T 3 0 203299 203302 203304 203339 203359 203386 203299 203302 203339 203359 203386 203299 203302 203339 203359 203499 203502 203386 203299 203302 203304 203499 203502 241051 241068 241051 241068 1 
# subpath constraints, in the format 'node1 node2 node3 ... '
# 0 subpath constraints for genome
#S 0 1 
#S 0 1 
#S 0 1 
#S 0 1 
#S 0 1 
# 1 subpath constraints for genome
#S 54323 54359 54455 54425 54282 54296 54534 54323 54359 54455 54398 54407 69656 
#S 69762 1 
#S 69762 1 
#S 69762 1 
#S 69762 1 
# 2 subpath constraints for genome
#S 114844 1 
#S 114844 1 
#S 114844 1 
#S 0 114793 114802 114805 114817 114826 114844 114871 114896 114922 114926 114947 114980 115007 115049 115063 115085 114793 114802 114805 114817 114826 114926 114947 115217 114980 115007 115258 115049 115063 114802 114805 114871 114896 115380 114922 114926 114947 
#S 114844 1 
# 3 subpath constraints for genome
#S 178417 1 
#S 178417 1 
#S 178417 1 
#S 152565 178400 
#S 152565 178400 
# 4 subpath constraints for genome
#S 0 203299 203302 203304 203339 203359 203386 203299 203302 203339 203359 203386 
#S 203502 241051 
#S 203502 241051 
#S 241068 1 
#S 241068 1 
78
54282 54296 40
54296 54323 32
54296 54534 15
54323 54359 43
54359 54398 9
54359 54455 21
54398 54407 17
54407 54425 10
54407 69656 13
54425 54282 26
54455 54425 11
54455 54398 7
54534 54323 15
69656 69659 21
69659 69713 11
69659 71976 15
69713 69731 21
69731 69758 12
69731 72002 10
69758 69762 20
69762 69656 10
69762 1 13
71976 69713 21
72002 69758 8
114793 114802 72
114802 114805 101
114805 114817 79
114805 114871 38
114817 114826 98
114826 114844 69
114826 114926 45
114844 114871 36
114844 1 38
114871 114896 85
114896 114922 38
114896 115380 35
114922 114926 69
114926 114947 88
114947 114980 49
114947 115217 35
114947 115085 39
114980 115007 79
115007 115049 31
115007 115258 21
115049 115063 82
115063 115085 35
115063 114802 41
115085 114793 31
115085 114817 31
115217 114980 32
115258 115049 35
115380 114922 43
152552 152565 41
152565 152552 21
152565 178400 22
178400 178417 42
178417 178400 14
178417 1 17
203299 203302 12
203302 203304 10
203302 203339 2
203304 203339 3
203304 203499 1
203339 203359 8
203359 203386 3
203359 203499 3
203386 203299 10
203499 203502 4
203502 203386 1
203502 241051 1
241051 241068 5
241068 241051 2
241068 1 2
0 1 142
0 54282 13
0 114793 39
0 152552 26
0 203299 2