#gt5.kmer27.(4200000.4250000).V54.E86.mincyc100.e1.0
#construct-flow-graph.py -o graphs-g5-w50000-k27-cyc/ -g 5 -w 50000 -k 27 --mincycles 1 --nreads 5 --readlength 1000 --distribution lognormal11 --pdf
#kmersize=27
#windowsize=50000
#acyclic=False
#mincycles=1
#distribution=lognormal11
#ngenomes=5
#nreads=5
#readlength=1000
#outdir=graphs-g5-w50000-k27-cyc/
#pdf=True
#erroreps=1.0
#unique source is 0, unique sink is 1
#genomes: GCA_000005845.2_ASM584v2.fna GCA_000006665.1_ASM666v1.fna GCA_000007445.1_ASM744v1.fna GCA_000008865.2_ASM886v2.fna GCA_000009565.2_ASM956v1.fna 
# ground truth paths, in the format 'weight node1 node2 node3 ... '
#T 122 0 18435 18436 18437 18446 18447 18485 18488 18542 18544 18545 18436 18437 18446 18447 45121 45133 49313 18485 18488 49396 49397 49313 49402 18542 18544 1 
#T 12 0 75606 75609 75636 75680 75606 75609 75876 75636 75680 1 
#T 107 0 101694 45121 45133 49397 49313 49402 18542 18544 101694 45121 45133 49397 49313 49402 18542 18544 18545 107315 107318 107345 107348 107372 107393 107399 107465 107499 107526 107528 107531 107315 107318 107569 107345 107348 107601 107619 107399 107465 107499 107647 107526 107528 107531 107668 107674 107569 107345 107348 107372 107601 107619 107399 107465 107499 107647 107526 107528 107531 107668 107674 107372 107393 107749 107773 107465 107499 107647 107668 107674 107372 107601 107619 107749 107773 107528 18435 18436 18437 18446 18447 18437 18446 1 
#T 42 0 151057 151062 151057 151062 1 
#T 31 0 202454 202503 202454 202503 202454 202503 49402 49396 49397 49313 49402 18542 18544 232035 232041 232042 232106 232108 232115 232042 232106 232108 232035 232041 232042 232106 232108 232115 232041 232042 232106 1 
# subpath constraints, in the format 'node1 node2 node3 ... '
# 0 subpath constraints for genome
#S 0 18435 
#S 18545 18436 
#S 18447 45121 
#S 0 18435 
#S 0 18435 
# 1 subpath constraints for genome
#S 0 75606 
#S 0 75606 
#S 0 75606 
#S 0 75606 
#S 0 75606 
# 2 subpath constraints for genome
#S 18446 1 
#S 18545 107315 
#S 18446 1 
#S 18446 1 
#S 18446 1 
# 3 subpath constraints for genome
#S 151062 1 
#S 151062 1 
#S 151062 1 
#S 151062 1 
#S 151062 1 
# 4 subpath constraints for genome
#S 49402 49396 
#S 232106 1 
#S 232106 1 
#S 232106 1 
#S 49402 49396 
86
18435 18436 229
18436 18437 342
18437 18446 469
18446 18447 321
18446 1 107
18447 18485 120
18447 45121 132
18447 18437 94
18485 18488 266
18488 18542 120
18488 49396 114
18542 18544 528
18544 18545 258
18544 1 143
18544 101694 112
18544 232035 30
18545 18436 126
18545 107315 98
45121 45133 350
45133 49313 114
45133 49397 218
49313 18485 121
49313 49402 380
49396 49397 150
49397 49313 362
49402 18542 363
49402 49396 29
75606 75609 21
75609 75636 15
75609 75876 19
75636 75680 21
75680 75606 10
75680 1 14
75876 75636 12
101694 45121 221
107315 107318 213
107318 107345 122
107318 107569 98
107345 107348 318
107348 107372 216
107348 107601 87
107372 107393 214
107372 107601 205
107393 107399 115
107393 107749 114
107399 107465 309
107465 107499 383
107499 107526 95
107499 107647 324
107526 107528 357
107528 107531 348
107528 18435 115
107531 107315 117
107531 107668 197
107569 107345 218
107601 107619 319
107619 107399 212
107619 107749 103
107647 107526 209
107647 107668 109
107668 107674 322
107674 107569 108
107674 107372 228
107749 107773 245
107773 107465 102
107773 107528 113
151057 151062 83
151062 151057 42
151062 1 50
202454 202503 92
202503 202454 69
202503 49402 28
232035 232041 54
232041 232042 90
232042 232106 122
232106 232108 97
232106 1 31
232108 232115 64
232108 232035 26
232115 232042 29
232115 232041 31
0 18435 122
0 75606 14
0 101694 109
0 151057 48
0 202454 23