#gt5.kmer27.(2450000.2500000).V28.E39.mincyc100.e1.0
#construct-flow-graph.py -o graphs-g5-w50000-k27-cyc/ -g 5 -w 50000 -k 27 --mincycles 1 --nreads 5 --readlength 1000 --distribution lognormal11 --pdf
#kmersize=27
#windowsize=50000
#acyclic=False
#mincycles=1
#distribution=lognormal11
#ngenomes=5
#nreads=5
#readlength=1000
#outdir=graphs-g5-w50000-k27-cyc/
#pdf=True
#erroreps=1.0
#unique source is 0, unique sink is 1
#genomes: GCA_000005845.2_ASM584v2.fna GCA_000006665.1_ASM666v1.fna GCA_000007445.1_ASM744v1.fna GCA_000008865.2_ASM886v2.fna GCA_000009565.2_ASM956v1.fna 
# ground truth paths, in the format 'weight node1 node2 node3 ... '
#T 10 0 1 
#T 150 0 99951 1 
#T 51 0 117312 117513 117552 117589 117616 117627 117657 117708 117735 117740 117767 117798 117825 117906 117933 118004 117312 117513 133109 117552 117589 133135 117616 117627 133164 117657 117708 133190 117735 117740 133216 117767 117798 133242 117825 117906 133268 117933 118004 1 
#T 5 0 199405 1 
#T 41 0 249380 1 
# subpath constraints, in the format 'node1 node2 node3 ... '
# 0 subpath constraints for genome
#S 0 1 
#S 0 1 
#S 0 1 
#S 0 1 
#S 0 1 
# 1 subpath constraints for genome
#S 0 99951 
#S 0 99951 
#S 0 99951 
#S 0 99951 
#S 0 99951 
# 2 subpath constraints for genome
#S 118004 1 
#S 0 117312 
#S 118004 1 
#S 118004 1 
#S 117740 133216 117767 117798 133242 117825 117906 133268 117933 118004 1 
# 3 subpath constraints for genome
#S 0 199405 
#S 0 199405 
#S 0 199405 
#S 0 199405 
#S 0 199405 
# 4 subpath constraints for genome
#S 0 249380 
#S 0 249380 
#S 0 249380 
#S 0 249380 
#S 0 249380 
39
99951 1 159
117312 117513 102
117513 117552 51
117513 133109 57
117552 117589 110
117589 117616 65
117589 133135 53
117616 117627 97
117627 117657 42
117627 133164 48
117657 117708 117
117708 117735 55
117708 133190 41
117735 117740 102
117740 117767 34
117740 133216 55
117767 117798 99
117798 117825 47
117798 133242 51
117825 117906 108
117906 117933 56
117906 133268 57
117933 118004 104
118004 117312 49
118004 1 57
133109 117552 43
133135 117616 47
133164 117657 37
133190 117735 43
133216 117767 50
133242 117825 46
133268 117933 50
199405 1 2
249380 1 39
0 1 11
0 99951 143
0 117312 49
0 199405 9
0 249380 36