#gt5.kmer27.(4250000.4300000).V25.E39.mincyc11.e1.0
#construct-flow-graph.py -o graphs-g5-w50000-k27-cyc/ -g 5 -w 50000 -k 27 --mincycles 1 --nreads 5 --readlength 1000 --distribution lognormal11 --pdf
#kmersize=27
#windowsize=50000
#acyclic=False
#mincycles=1
#distribution=lognormal11
#ngenomes=5
#nreads=5
#readlength=1000
#outdir=graphs-g5-w50000-k27-cyc/
#pdf=True
#erroreps=1.0
#unique source is 0, unique sink is 1
#genomes: GCA_000005845.2_ASM584v2.fna GCA_000006665.1_ASM666v1.fna GCA_000007445.1_ASM744v1.fna GCA_000008865.2_ASM886v2.fna GCA_000009565.2_ASM956v1.fna 
# ground truth paths, in the format 'weight node1 node2 node3 ... '
#T 62 0 35302 35309 35312 45833 45836 45846 45854 45904 45931 45939 45854 45904 45967 35309 45931 45939 45836 45846 45854 45904 45931 45939 45854 45904 45931 45939 45854 45904 45967 45833 45836 45846 1 
#T 32 0 68530 68535 68530 68535 1 
#T 29 0 134943 134949 134943 134949 1 
#T 41 0 192662 192665 192662 192665 1 
#T 39 0 229843 35302 35309 35312 248376 248428 248436 248473 248376 248428 248436 248522 248473 248376 248428 1 
# subpath constraints, in the format 'node1 node2 node3 ... '
# 0 subpath constraints for genome
#S 0 35302 
#S 0 35302 
#S 0 35302 
#S 0 35302 
#S 0 35302 
# 1 subpath constraints for genome
#S 68535 1 
#S 0 68530 
#S 0 68530 
#S 0 68530 
#S 68535 1 
# 2 subpath constraints for genome
#S 134949 1 
#S 0 134943 
#S 134949 134943 
#S 0 134943 
#S 0 134943 
# 3 subpath constraints for genome
#S 0 192662 
#S 0 192662 
#S 0 192662 
#S 0 192662 
#S 0 192662 
# 4 subpath constraints for genome
#S 35312 248376 
#S 35312 248376 
#S 0 229843 
#S 35312 248376 
#S 0 229843 
39
35302 35309 105
35309 35312 96
35309 45931 52
35312 45833 67
35312 248376 36
45833 45836 131
45836 45846 147
45846 45854 127
45846 1 49
45854 45904 310
45904 45967 120
45904 45931 187
45931 45939 224
45939 45854 198
45939 45836 65
45967 35309 61
45967 45833 62
68530 68535 65
68535 68530 46
68535 1 33
134943 134949 53
134949 134943 24
134949 1 27
192662 192665 86
192665 192662 45
192665 1 42
229843 35302 34
248376 248428 108
248428 248436 65
248428 1 28
248436 248473 31
248436 248522 40
248473 248376 81
248522 248473 32
0 35302 62
0 68530 29
0 134943 25
0 192662 43
0 229843 47