#gt5.kmer27.(4450000.4500000).V26.E40.mincyc8.e1.0
#construct-flow-graph.py -o graphs-g5-w50000-k27-cyc/ -g 5 -w 50000 -k 27 --mincycles 1 --nreads 5 --readlength 1000 --distribution lognormal11 --pdf
#kmersize=27
#windowsize=50000
#acyclic=False
#mincycles=1
#distribution=lognormal11
#ngenomes=5
#nreads=5
#readlength=1000
#outdir=graphs-g5-w50000-k27-cyc/
#pdf=True
#erroreps=1.0
#unique source is 0, unique sink is 1
#genomes: GCA_000005845.2_ASM584v2.fna GCA_000006665.1_ASM666v1.fna GCA_000007445.1_ASM744v1.fna GCA_000008865.2_ASM886v2.fna GCA_000009565.2_ASM956v1.fna 
# ground truth paths, in the format 'weight node1 node2 node3 ... '
#T 91 0 7186 7192 7195 7196 10469 10470 7192 7195 34390 1 
#T 24 0 85458 85459 85519 7186 7192 7195 7196 99670 99671 99670 99671 1 
#T 6 0 138023 138024 138023 138024 138023 138024 138023 138024 138023 138024 1 
#T 6 0 187059 85458 85459 10469 10470 187144 1 
#T 6 0 199861 200088 200115 200270 200297 200532 187144 85519 7186 7192 7195 34390 199861 200088 237027 200115 200270 237053 200297 200532 1 
# subpath constraints, in the format 'node1 node2 node3 ... '
# 0 subpath constraints for genome
#S 10470 7192 
#S 34390 1 
#S 34390 1 
#S 10470 7192 
#S 10470 7192 
# 1 subpath constraints for genome
#S 0 85458 
#S 0 85458 
#S 0 85458 
#S 0 85458 
#S 0 85458 
# 2 subpath constraints for genome
#S 0 138023 
#S 0 138023 
#S 0 138023 
#S 138024 1 
#S 0 138023 
# 3 subpath constraints for genome
#S 0 187059 
#S 0 187059 
#S 0 187059 
#S 0 187059 
#S 187144 1 
# 4 subpath constraints for genome
#S 34390 199861 
#S 200532 1 
#S 200532 1 
#S 34390 199861 
#S 200532 187144 
40
7186 7192 126
7192 7195 210
7195 7196 107
7195 34390 93
7196 10469 98
7196 99670 21
10469 10470 83
10470 7192 82
10470 187144 6
34390 1 95
34390 199861 7
85458 85459 31
85459 85519 30
85459 10469 4
85519 7186 40
99670 99671 47
99671 99670 31
99671 1 25
138023 138024 19
138024 138023 29
138024 1 4
187059 85458 7
187144 1 4
187144 85519 6
199861 200088 9
200088 200115 6
200088 237027 6
200115 200270 13
200270 200297 5
200270 237053 9
200297 200532 12
200532 187144 7
200532 1 5
237027 200115 6
237053 200297 5
0 199861 2
0 7186 95
0 85458 23
0 138023 2
0 187059 7