#gt5.kmer27.(2500000.2550000).V31.E49.mincyc14.e1.0
#construct-flow-graph.py -o graphs-g5-w50000-k27-cyc/ -g 5 -w 50000 -k 27 --mincycles 1 --nreads 5 --readlength 1000 --distribution lognormal11 --pdf
#kmersize=27
#windowsize=50000
#acyclic=False
#mincycles=1
#distribution=lognormal11
#ngenomes=5
#nreads=5
#readlength=1000
#outdir=graphs-g5-w50000-k27-cyc/
#pdf=True
#erroreps=1.0
#unique source is 0, unique sink is 1
#genomes: GCA_000005845.2_ASM584v2.fna GCA_000006665.1_ASM666v1.fna GCA_000007445.1_ASM744v1.fna GCA_000008865.2_ASM886v2.fna GCA_000009565.2_ASM956v1.fna 
# ground truth paths, in the format 'weight node1 node2 node3 ... '
#T 8 0 11413 18037 18092 18037 18092 20876 20926 20991 20876 20926 20998 20991 20876 20926 20998 21146 21169 21146 21169 38345 38357 49276 49277 49280 1 
#T 10 0 1 
#T 116 0 38345 38357 127957 127963 127957 127963 128086 128088 128089 1 
#T 25 0 195927 195929 195974 195985 195927 195929 196069 195974 195985 1 
#T 44 0 219064 219072 219064 219072 49276 49277 49280 220555 11413 227812 227836 128088 227812 227836 128088 227812 227836 128086 128088 128089 49277 49280 220555 1 
# subpath constraints, in the format 'node1 node2 node3 ... '
# 0 subpath constraints for genome
#S 21169 38345 
#S 21169 38345 
#S 21169 38345 
#S 0 11413 
#S 21169 38345 
# 1 subpath constraints for genome
#S 0 1 
#S 0 1 
#S 0 1 
#S 0 1 
#S 0 1 
# 2 subpath constraints for genome
#S 128089 1 
#S 38357 127957 
#S 128089 1 
#S 128089 1 
#S 128089 1 
# 3 subpath constraints for genome
#S 0 195927 
#S 0 195927 
#S 0 195927 
#S 0 195927 
#S 0 195927 
# 4 subpath constraints for genome
#S 227836 128086 
#S 0 219064 
#S 0 219064 
#S 227836 128086 
#S 11413 227812 
49
11413 18037 7
11413 227812 37
18037 18092 15
18092 18037 5
18092 20876 8
20876 20926 27
20926 20991 12
20926 20998 21
20991 20876 14
20998 20991 7
20998 21146 15
21146 21169 24
21169 21146 7
21169 38345 11
38345 38357 126
38357 49276 12
38357 127957 108
49276 49277 54
49277 49280 73
49280 220555 98
49280 1 17
127957 127963 233
127963 127957 96
127963 128086 98
128086 128088 154
128088 128089 165
128088 227812 91
128089 1 125
128089 49277 41
195927 195929 64
195929 195974 25
195929 196069 32
195974 195985 50
195985 195927 24
195985 1 20
196069 195974 23
219064 219072 83
219072 219064 57
219072 49276 51
220555 11413 42
220555 1 40
227812 227836 142
227836 128088 105
227836 128086 46
0 11413 7
0 1 12
0 38345 135
0 195927 24
0 219064 44