#gt5.kmer27.(4300000.4350000).V17.E27.mincyc8.e1.0
#construct-flow-graph.py -o graphs-g5-w50000-k27-cyc/ -g 5 -w 50000 -k 27 --mincycles 1 --nreads 5 --readlength 1000 --distribution lognormal11 --pdf
#kmersize=27
#windowsize=50000
#acyclic=False
#mincycles=1
#distribution=lognormal11
#ngenomes=5
#nreads=5
#readlength=1000
#outdir=graphs-g5-w50000-k27-cyc/
#pdf=True
#erroreps=1.0
#unique source is 0, unique sink is 1
#genomes: GCA_000005845.2_ASM584v2.fna GCA_000006665.1_ASM666v1.fna GCA_000007445.1_ASM744v1.fna GCA_000008865.2_ASM886v2.fna GCA_000009565.2_ASM956v1.fna 
# ground truth paths, in the format 'weight node1 node2 node3 ... '
#T 11 0 14294 14296 25843 25849 25850 25863 25890 25914 25916 25923 25850 25863 25890 25914 25916 25923 25849 25850 25863 26000 25890 25914 25916 25843 25849 25850 25863 25890 25914 25916 25923 25849 25850 25863 25890 25914 1 
#T 20 0 1 
#T 16 0 101325 101333 101325 101333 101325 101333 101325 101333 101325 101333 101325 101333 101325 101333 101325 101333 101325 101333 101325 101333 101325 101333 101325 101333 101325 101333 101325 101333 101325 101333 101325 101333 101325 101333 101325 101333 101325 101333 101325 101333 101325 101333 101325 101333 1 
#T 15 0 164949 164949 14294 14296 1 
#T 19 0 249395 1 
# subpath constraints, in the format 'node1 node2 node3 ... '
# 0 subpath constraints for genome
#S 0 14294 
#S 0 14294 
#S 0 14294 
#S 25914 1 
#S 14296 25843 
# 1 subpath constraints for genome
#S 0 1 
#S 0 1 
#S 0 1 
#S 0 1 
#S 0 1 
# 2 subpath constraints for genome
#S 101333 1 
#S 101333 1 
#S 101333 1 
#S 101333 1 
#S 101333 1 
# 3 subpath constraints for genome
#S 14296 1 
#S 0 164949 164949 
#S 0 164949 
#S 0 164949 
#S 14296 1 
# 4 subpath constraints for genome
#S 0 249395 
#S 0 249395 
#S 0 249395 
#S 0 249395 
#S 0 249395 
27
14294 14296 21
14296 25843 9
14296 1 23
25843 25849 32
25849 25850 41
25850 25863 60
25863 25890 53
25863 26000 23
25890 25914 54
25914 25916 54
25914 1 2
25916 25923 23
25916 25843 4
25923 25850 9
25923 25849 17
26000 25890 11
101325 101333 347
101333 101325 315
101333 1 19
164949 164949 15
164949 14294 18
249395 1 24
0 14294 6
0 1 20
0 101325 17
0 164949 14
0 249395 15