#gt10.kmer27.(3350000.3400000).V215.E306.mincyc25.e1.0
#construct-flow-graph.py -o graphs-g10-w50000-k27-cyc/ -g 10 -w 50000 -k 27 --mincycles 1 --nreads 5 --readlength 1000 --distribution lognormal11
#kmersize=27
#windowsize=50000
#acyclic=False
#mincycles=1
#distribution=lognormal11
#ngenomes=10
#nreads=5
#readlength=1000
#outdir=graphs-g10-w50000-k27-cyc/
#pdf=False
#erroreps=1.0
#unique source is 0, unique sink is 1
#genomes: GCA_000005845.2_ASM584v2.fna GCA_000006665.1_ASM666v1.fna GCA_000007445.1_ASM744v1.fna GCA_000008865.2_ASM886v2.fna GCA_000009565.2_ASM956v1.fna GCA_000010245.1_ASM1024v1.fna GCA_000010385.1_ASM1038v1.fna GCA_000010485.1_ASM1048v1.fna GCA_000010745.1_ASM1074v1.fna GCA_000010765.1_ASM1076v1.fna 
# ground truth paths, in the format 'weight node1 node2 node3 ... '
#T 6 0 146 147 42071 42078 42123 42144 42171 42123 42144 42226 42237 42171 42123 42144 42226 42071 42078 49579 49629 49656 49868 1 
#T 76 0 83484 1 
#T 166 0 124386 124392 124457 124461 127603 127607 127603 127607 124457 144507 144570 144618 144624 144651 144717 144795 144843 144870 144945 144972 144981 145008 145095 145123 145167 145239 145243 145275 145288 145374 145394 145478 145487 145532 145553 145631 145685 145760 145793 145820 145832 145859 145922 145973 146021 146093 146120 146143 146192 146204 146234 146443 146473 146703 146751 146799 146826 146835 146862 147000 147033 147045 147078 147310 147337 147353 147380 147384 42237 42171 147459 147515 147554 147668 147695 147999 148026 148030 148057 148206 148233 148287 148321 148348 148393 148471 148498 148501 148528 148735 148768 148848 148885 148933 148960 148970 148997 149107 149134 149143 149170 149212 149248 149263 149302 149365 149392 149476 149503 149509 149536 149631 149658 149808 1 
#T 174 0 175630 175640 182956 182961 182988 194218 83484 194222 1 
#T 171 0 182961 214249 124386 124392 222718 124457 124461 1 
#T 64 0 147 42071 42078 42123 42144 42171 42123 42144 42226 42237 42171 42123 42144 42226 42071 42078 49579 49629 49656 49868 249889 1 
#T 11 0 144507 144570 249938 144618 144624 249964 144651 144717 250041 144795 144843 250067 144870 144945 250093 144972 144981 250119 145008 145095 250146 145123 145167 250217 145239 145243 250248 145275 145288 250333 145374 145394 250416 145478 145487 250460 145532 145553 250537 145631 145685 250611 145760 145793 250637 145820 145832 250663 145859 250725 145922 145973 250772 146021 146093 250798 146120 146143 250846 146192 146204 250875 146234 146443 250904 146473 146703 250951 146751 146799 250977 146826 146835 251003 146862 147000 251035 147033 147045 251067 147078 147310 251093 147337 147353 251119 147380 147384 147459 147515 251235 147554 147668 251261 147695 147999 251287 148026 148030 251313 148057 148206 251339 148233 148287 251372 148321 148348 251416 148393 148471 251442 148498 148501 251468 148528 148735 251500 148768 148848 251536 148885 148933 251562 148960 148970 251588 148997 149107 251614 149134 149143 251640 149170 149212 251675 149248 149263 251713 149302 149365 251739 149392 149476 251765 149503 149509 251791 149536 149631 251817 149658 149808 194218 83484 194222 296478 1 
#T 10 0 49579 49629 296504 49656 49868 249889 328213 328290 328213 328290 1 
#T 8 0 366949 366950 366951 366954 366955 367011 366951 366954 367012 367067 367011 366951 366954 367012 366950 366951 366954 366955 367124 367126 366951 366954 366955 367124 367126 367228 367067 367011 366951 366954 367229 367228 367067 367011 366951 366954 367229 366949 366950 366951 366954 366955 367124 1 
#T 9 0 427162 427164 427217 427225 427250 427277 427291 427298 427346 427434 427164 427217 427225 427250 427464 427277 427291 427298 427162 427164 427217 427225 427291 427298 427346 427618 427434 427164 427217 182956 182961 214249 182988 444302 444310 444302 444310 175630 175640 1 
# subpath constraints, in the format 'node1 node2 node3 ... '
# 0 subpath constraints for genome
#S 147 42071 
#S 147 42071 
#S 147 42071 
#S 49656 49868 
#S 147 42071 
# 1 subpath constraints for genome
#S 0 83484 
#S 83484 1 
#S 83484 1 
#S 0 83484 
#S 0 83484 
# 2 subpath constraints for genome
#S 0 124386 
#S 0 124386 
#S 124461 127603 
#S 0 124386 
#S 0 124386 
# 3 subpath constraints for genome
#S 175640 182956 
#S 182988 194218 
#S 0 175630 
#S 0 175630 
#S 0 175630 
# 4 subpath constraints for genome
#S 0 182961 
#S 124461 1 
#S 214249 124386 
#S 0 182961 
#S 124461 1 
# 5 subpath constraints for genome
#S 147 42071 
#S 147 42071 42078 42123 42144 42171 42123 42144 42226 42237 42171 42123 
#S 147 42071 
#S 147 42071 
#S 42078 49579 
# 6 subpath constraints for genome
#S 194222 296478 
#S 149808 194218 
#S 194222 296478 
#S 149808 194218 
#S 149808 194218 
# 7 subpath constraints for genome
#S 328290 1 
#S 249889 328213 
#S 328290 1 
#S 328290 1 
#S 249889 328213 
# 8 subpath constraints for genome
#S 367124 1 
#S 367124 1 
#S 0 366949 
#S 0 366949 
#S 0 366949 
# 9 subpath constraints for genome
#S 0 427162 
#S 0 427162 
#S 0 427162 
#S 182988 444302 
#S 182988 444302 
306
146 147 9
147 42071 70
42071 42078 138
42078 42123 60
42078 49579 76
42123 42144 219
42144 42171 65
42144 42226 132
42171 42123 119
42171 147459 185
42226 42237 63
42226 42071 61
42237 42171 230
49579 49629 88
49629 49656 68
49629 296504 11
49656 49868 57
49868 1 7
49868 249889 83
83484 194222 153
83484 1 80
124386 124392 356
124392 124457 165
124392 222718 155
124457 124461 331
124457 144507 175
124461 127603 162
124461 1 171
127603 127607 350
127607 127603 173
127607 124457 152
144507 144570 177
144570 144618 152
144570 249938 13
144618 144624 182
144624 144651 183
144624 249964 10
144651 144717 178
144717 144795 185
144717 250041 12
144795 144843 185
144843 144870 158
144843 250067 11
144870 144945 178
144945 144972 165
144945 250093 13
144972 144981 172
144981 145008 198
144981 250119 6
145008 145095 177
145095 145123 158
145095 250146 5
145123 145167 176
145167 145239 172
145167 250217 9
145239 145243 183
145243 145275 176
145243 250248 17
145275 145288 198
145288 145374 155
145288 250333 11
145374 145394 165
145394 145478 183
145394 250416 9
145478 145487 169
145487 145532 170
145487 250460 9
145532 145553 189
145553 145631 142
145553 250537 14
145631 145685 168
145685 145760 168
145685 250611 10
145760 145793 182
145793 145820 148
145793 250637 9
145820 145832 197
145832 145859 182
145832 250663 10
145859 145922 174
145859 250725 7
145922 145973 187
145973 146021 163
145973 250772 10
146021 146093 177
146093 146120 159
146093 250798 10
146120 146143 179
146143 146192 148
146143 250846 13
146192 146204 173
146204 146234 143
146204 250875 11
146234 146443 185
146443 146473 187
146443 250904 14
146473 146703 181
146703 146751 174
146703 250951 9
146751 146799 190
146799 146826 184
146799 250977 14
146826 146835 152
146835 146862 166
146835 251003 10
146862 147000 183
147000 147033 163
147000 251035 9
147033 147045 188
147045 147078 159
147045 251067 8
147078 147310 189
147310 147337 149
147310 251093 8
147337 147353 181
147353 147380 152
147353 251119 13
147380 147384 147
147384 42237 144
147384 147459 12
147459 147515 216
147515 147554 180
147515 251235 17
147554 147668 161
147668 147695 156
147668 251261 11
147695 147999 152
147999 148026 176
147999 251287 11
148026 148030 147
148030 148057 187
148030 251313 13
148057 148206 145
148206 148233 178
148206 251339 12
148233 148287 185
148287 148321 157
148287 251372 9
148321 148348 159
148348 148393 160
148348 251416 11
148393 148471 198
148471 148498 146
148471 251442 11
148498 148501 162
148501 148528 161
148501 251468 14
148528 148735 179
148735 148768 170
148735 251500 12
148768 148848 184
148848 148885 175
148848 251536 8
148885 148933 173
148933 148960 160
148933 251562 12
148960 148970 154
148970 148997 175
148970 251588 9
148997 149107 184
149107 149134 161
149107 251614 10
149134 149143 152
149143 149170 145
149143 251640 13
149170 149212 170
149212 149248 160
149212 251675 8
149248 149263 155
149263 149302 163
149263 251713 13
149302 149365 183
149365 149392 158
149365 251739 5
149392 149476 160
149476 149503 177
149476 251765 11
149503 149509 163
149509 149536 157
149509 251791 14
149536 149631 203
149631 149658 186
149631 251817 14
149658 149808 168
149808 1 159
149808 194218 17
175630 175640 188
175640 182956 183
175640 1 10
182956 182961 181
182961 182988 173
182961 214249 183
182988 194218 183
182988 444302 8
194218 83484 190
194222 1 186
194222 296478 12
214249 124386 173
214249 182988 5
222718 124457 168
249889 1 67
249889 328213 10
249938 144618 15
249964 144651 7
250041 144795 8
250067 144870 14
250093 144972 9
250119 145008 13
250146 145123 11
250217 145239 13
250248 145275 13
250333 145374 10
250416 145478 8
250460 145532 9
250537 145631 10
250611 145760 12
250637 145820 4
250663 145859 15
250725 145922 13
250772 146021 16
250798 146120 13
250846 146192 17
250875 146234 18
250904 146473 8
250951 146751 8
250977 146826 7
251003 146862 9
251035 147033 16
251067 147078 9
251093 147337 12
251119 147380 8
251235 147554 4
251261 147695 20
251287 148026 16
251313 148057 14
251339 148233 9
251372 148321 8
251416 148393 15
251442 148498 6
251468 148528 9
251500 148768 12
251536 148885 5
251562 148960 10
251588 148997 7
251614 149134 8
251640 149170 8
251675 149248 9
251713 149302 11
251739 149392 10
251765 149503 9
251791 149536 15
251817 149658 17
296478 1 7
296504 49656 7
328213 328290 28
328290 328213 12
328290 1 9
366949 366950 14
366950 366951 25
366951 366954 65
366954 366955 43
366954 367012 7
366954 367229 20
366955 367011 7
366955 367124 16
367011 366951 34
367012 367067 10
367012 366950 6
367067 367011 34
367124 367126 18
367124 1 2
367126 366951 9
367126 367228 11
367228 367067 15
367229 367228 6
367229 366949 3
427162 427164 18
427164 427217 40
427217 427225 27
427217 182956 11
427225 427250 16
427225 427291 5
427250 427277 6
427250 427464 9
427277 427291 9
427291 427298 31
427298 427346 18
427298 427162 6
427346 427434 8
427346 427618 8
427434 427164 19
427464 427277 10
427618 427434 6
444302 444310 25
444310 444302 6
444310 175630 8
0 147 71
0 49579 8
0 146 7
0 83484 71
0 124386 157
0 175630 179
0 182961 181
0 144507 9
0 366949 5
0 427162 9