#gt10.kmer27.(3400000.3450000).V153.E218.mincyc13.e1.0
#construct-flow-graph.py -o graphs-g10-w50000-k27-cyc/ -g 10 -w 50000 -k 27 --mincycles 1 --nreads 5 --readlength 1000 --distribution lognormal11
#kmersize=27
#windowsize=50000
#acyclic=False
#mincycles=1
#distribution=lognormal11
#ngenomes=10
#nreads=5
#readlength=1000
#outdir=graphs-g10-w50000-k27-cyc/
#pdf=False
#erroreps=1.0
#unique source is 0, unique sink is 1
#genomes: GCA_000005845.2_ASM584v2.fna GCA_000006665.1_ASM666v1.fna GCA_000007445.1_ASM744v1.fna GCA_000008865.2_ASM886v2.fna GCA_000009565.2_ASM956v1.fna GCA_000010245.1_ASM1024v1.fna GCA_000010385.1_ASM1038v1.fna GCA_000010485.1_ASM1048v1.fna GCA_000010745.1_ASM1074v1.fna GCA_000010765.1_ASM1076v1.fna 
# ground truth paths, in the format 'weight node1 node2 node3 ... '
#T 60 0 146 147 23428 23505 23506 23663 23428 23505 23506 23698 23735 23762 23763 23790 24131 24160 24469 24504 24548 24575 24815 24842 24945 24982 25451 25496 25502 25536 26034 26061 26128 26166 26324 26351 26700 26734 26793 27099 27102 27105 27129 27133 27250 28386 28436 28451 28478 28566 28607 28814 28850 28891 41184 41777 41804 41806 41833 42854 42898 43460 43487 43583 43610 43697 43739 44169 44196 44207 44234 44319 44346 44703 44772 44823 44850 45566 45593 47438 47465 47544 47571 47935 47962 48193 48220 48937 48964 49897 1 
#T 43 0 1 
#T 19 0 111019 111028 112537 112538 112543 112663 111019 111028 112538 112543 112663 128158 128159 112537 112538 112543 128158 128159 1 
#T 39 0 23663 23428 23505 23698 23735 196146 23762 23763 196172 23790 24131 196200 24160 24469 196234 24504 24548 196260 24575 24815 196286 24842 24945 196322 24982 25451 196366 25496 25502 196398 25536 26034 196424 26061 26128 196461 26166 26324 196487 26351 26700 196489 196529 26734 26793 196571 196602 196678 196705 27099 27102 27105 27133 27250 1 
#T 8 0 246744 1 
#T 118 0 147 23428 23505 23506 23663 23428 23505 23506 23698 23735 23762 23763 23790 24131 196200 24160 24469 24504 24548 24575 24815 24842 24945 24982 25451 25496 25502 25536 26034 26061 26128 26166 26324 26351 26700 196489 246783 196529 26734 26793 196571 246813 196602 196678 246839 196705 27099 27102 27129 27133 27250 28386 246914 28436 28451 246940 28478 28566 246980 28607 28814 247013 28850 28891 1 
#T 21 0 285237 285238 285237 285238 1 
#T 58 0 41184 41777 318248 41804 41806 318274 41833 42854 318317 42898 43460 318343 43487 43583 318369 43610 43697 318410 43739 44169 318436 44196 44207 318462 44234 44319 318488 44346 44703 318556 44772 44823 318582 44850 45566 318608 45593 47438 318634 47465 47544 318660 47571 47935 318686 47962 48193 318712 48220 48937 318738 48964 49897 337793 337796 337793 337796 350564 350569 350564 350569 1 
#T 8 0 374245 374300 374301 374349 374245 374300 374349 374245 374300 374301 1 
#T 6 0 455888 455889 455892 455893 455894 455889 455892 455893 455894 455888 455889 455892 455893 455889 455892 1 
# subpath constraints, in the format 'node1 node2 node3 ... '
# 0 subpath constraints for genome
#S 147 23428 
#S 147 23428 23505 23506 23663 23428 23505 23506 23698 23735 23762 23763 23790 24131 
#S 147 23428 
#S 28891 41184 
#S 48964 49897 
# 1 subpath constraints for genome
#S 0 1 
#S 0 1 
#S 0 1 
#S 0 1 
#S 0 1 
# 2 subpath constraints for genome
#S 128159 1 
#S 0 111019 
#S 112663 111019 111028 112538 
#S 112663 111019 
#S 128159 1 
# 3 subpath constraints for genome
#S 0 23663 
#S 0 23663 
#S 0 23663 
#S 24160 24469 196234 24504 24548 196260 24575 24815 196286 24842 24945 196322 24982 25451 
#S 0 23663 
# 4 subpath constraints for genome
#S 0 246744 
#S 0 246744 
#S 0 246744 
#S 0 246744 
#S 0 246744 
# 5 subpath constraints for genome
#S 28891 1 
#S 147 23428 
#S 28891 1 
#S 147 23428 
#S 147 23428 
# 6 subpath constraints for genome
#S 285238 1 
#S 0 285237 
#S 0 285237 
#S 285238 1 
#S 285238 1 
# 7 subpath constraints for genome
#S 337796 350564 350569 350564 
#S 337796 350564 
#S 48964 49897 337793 
#S 337796 350564 
#S 337796 350564 
# 8 subpath constraints for genome
#S 374301 1 
#S 374301 1 
#S 0 374245 
#S 0 374245 
#S 0 374245 
# 9 subpath constraints for genome
#S 0 455888 
#S 0 455888 
#S 0 455888 455889 455892 455893 455894 455889 455892 455893 455894 455888 455889 455892 455893 455889 455892 1 
#S 0 455888 
#S 0 455888 455889 455892 455893 455894 455889 455892 455893 455894 455888 
218
146 147 56
147 23428 178
23428 23505 393
23505 23506 351
23505 23698 53
23506 23663 178
23506 23698 178
23663 23428 219
23698 23735 207
23735 23762 173
23735 196146 40
23762 23763 227
23763 23790 165
23763 196172 32
23790 24131 186
24131 24160 67
24131 196200 150
24160 24469 169
24469 24504 181
24469 196234 47
24504 24548 261
24548 24575 181
24548 196260 33
24575 24815 196
24815 24842 152
24815 196286 37
24842 24945 207
24945 24982 171
24945 196322 56
24982 25451 232
25451 25496 198
25451 196366 44
25496 25502 223
25502 25536 183
25502 196398 37
25536 26034 233
26034 26061 197
26034 196424 41
26061 26128 226
26128 26166 180
26128 196461 32
26166 26324 186
26324 26351 184
26324 196487 48
26351 26700 234
26700 26734 50
26700 196489 140
26734 26793 184
26793 27099 62
26793 196571 171
27099 27102 210
27102 27105 93
27102 27129 117
27105 27129 56
27105 27133 48
27129 27133 167
27133 27250 223
27250 1 37
27250 28386 170
28386 28436 57
28386 246914 121
28436 28451 174
28451 28478 71
28451 246940 112
28478 28566 181
28566 28607 51
28566 246980 131
28607 28814 180
28814 28850 55
28814 247013 118
28850 28891 196
28891 41184 65
28891 1 122
41184 41777 101
41777 41804 61
41777 318248 70
41804 41806 117
41806 41833 40
41806 318274 49
41833 42854 116
42854 42898 53
42854 318317 66
42898 43460 118
43460 43487 48
43460 318343 44
43487 43583 104
43583 43610 78
43583 318369 56
43610 43697 114
43697 43739 54
43697 318410 62
43739 44169 122
44169 44196 70
44169 318436 56
44196 44207 138
44207 44234 61
44207 318462 55
44234 44319 125
44319 44346 63
44319 318488 61
44346 44703 117
44703 44772 49
44703 318556 76
44772 44823 133
44823 44850 52
44823 318582 46
44850 45566 117
45566 45593 73
45566 318608 74
45593 47438 119
47438 47465 56
47438 318634 62
47465 47544 128
47544 47571 65
47544 318660 54
47571 47935 103
47935 47962 54
47935 318686 55
47962 48193 119
48193 48220 62
48193 318712 67
48220 48937 118
48937 48964 51
48937 318738 62
48964 49897 127
49897 1 57
49897 337793 48
111019 111028 40
111028 112537 22
111028 112538 17
112537 112538 32
112538 112543 50
112543 112663 38
112543 128158 17
112663 111019 14
112663 128158 19
128158 128159 39
128159 112537 26
128159 1 12
196146 23762 39
196172 23790 59
196200 24160 140
196234 24504 48
196260 24575 43
196286 24842 28
196322 24982 33
196366 25496 34
196398 25536 38
196424 26061 41
196461 26166 40
196487 26351 34
196489 196529 41
196489 246783 109
196529 26734 148
196571 196602 37
196571 246813 120
196602 196678 166
196678 196705 49
196678 246839 125
196705 27099 154
246744 1 8
246783 196529 111
246813 196602 113
246839 196705 121
246914 28436 127
246940 28478 112
246980 28607 113
247013 28850 115
285237 285238 40
285238 285237 23
285238 1 19
318248 41804 60
318274 41833 57
318317 42898 60
318343 43487 70
318369 43610 61
318410 43739 60
318436 44196 58
318462 44234 54
318488 44346 52
318556 44772 60
318582 44850 60
318608 45593 46
318634 47465 59
318660 47571 60
318686 47962 73
318712 48220 72
318738 48964 61
337793 337796 107
337796 337793 70
337796 350564 53
350564 350569 118
350569 350564 51
350569 1 64
374245 374300 25
374300 374301 19
374300 374349 10
374301 374349 8
374301 1 6
374349 374245 19
455888 455889 13
455889 455892 34
455892 455893 19
455892 1 3
455893 455894 10
455893 455889 1
455894 455889 11
455894 455888 8
0 147 117
0 41184 63
0 146 64
0 1 51
0 111019 15
0 23663 45
0 246744 6
0 285237 22
0 374245 7
0 455888 6