#gt10.kmer27.(2650000.2700000).V184.E263.mincyc57.e1.0
#construct-flow-graph.py -o graphs-g10-w50000-k27-cyc/ -g 10 -w 50000 -k 27 --mincycles 1 --nreads 5 --readlength 1000 --distribution lognormal11
#kmersize=27
#windowsize=50000
#acyclic=False
#mincycles=1
#distribution=lognormal11
#ngenomes=10
#nreads=5
#readlength=1000
#outdir=graphs-g10-w50000-k27-cyc/
#pdf=False
#erroreps=1.0
#unique source is 0, unique sink is 1
#genomes: GCA_000005845.2_ASM584v2.fna GCA_000006665.1_ASM666v1.fna GCA_000007445.1_ASM744v1.fna GCA_000008865.2_ASM886v2.fna GCA_000009565.2_ASM956v1.fna GCA_000010245.1_ASM1024v1.fna GCA_000010385.1_ASM1038v1.fna GCA_000010485.1_ASM1048v1.fna GCA_000010745.1_ASM1074v1.fna GCA_000010765.1_ASM1076v1.fna 
# ground truth paths, in the format 'weight node1 node2 node3 ... '
#T 53 0 1345 1346 3470 3478 3470 3478 4961 4966 5024 5031 5034 12344 12368 12394 12344 12368 12394 12344 12368 23651 12394 23655 4961 4966 49844 1 
#T 93 0 67956 67987 68014 68051 87309 87462 87489 88113 88140 88171 67956 67987 89101 68014 68051 1 
#T 46 0 145179 145180 145260 145287 145313 145340 145531 145558 146505 146532 146628 146655 146688 146715 147246 147278 147293 147320 147353 147395 147401 147500 147503 147608 147821 147890 147947 147974 147989 148022 148037 148094 148097 148124 148142 148169 148182 148223 148310 148337 148364 148372 148399 148457 148508 148520 148547 148605 148632 148661 148688 148766 148793 148826 148853 148892 148919 148985 149030 149063 149090 149167 149194 149198 149225 149257 149284 149327 149354 149384 149411 149423 149450 149516 149543 149579 149630 149633 149660 149724 1 
#T 39 0 169706 169714 169731 169735 169760 169762 169764 169788 169815 169828 169714 169731 169735 169762 169764 169788 169815 169828 169706 169714 169731 169735 169760 169762 169764 169788 169901 169815 169828 169714 169731 169760 169762 169764 169901 169815 169828 169714 169731 169760 169762 169764 169901 169815 1 
#T 31 0 207033 207036 207041 207094 207102 207136 207148 207175 207223 207033 207036 207041 207094 207102 207339 207136 207148 207359 207175 207041 207094 207102 207359 207175 207223 207036 207041 207094 5024 5031 5034 23651 12394 23655 1 
#T 147 0 1346 3470 3478 3470 3478 4961 4966 5024 5031 5034 12344 12368 12394 12344 12368 12394 12344 12368 23651 12394 23655 4961 4966 49844 250339 1 
#T 8 0 145180 145260 250365 145287 145313 250391 145340 145531 250417 145558 146505 250443 146532 146628 250469 146655 146688 250495 146715 147246 250526 147278 147293 250552 147320 147353 250593 147395 147401 250691 147500 147503 250795 147608 147821 250863 147890 147947 250889 147974 147989 250921 148022 148037 250977 148094 148097 251003 148124 148142 251029 148169 148182 251069 148223 148310 251095 148337 251121 148364 148372 251147 148399 148457 251197 148508 148520 251223 148547 148605 251249 148632 148661 251275 148688 148766 251301 148793 148826 251327 148853 148892 251353 148919 148985 251397 149030 149063 251423 149090 149167 251449 149194 149198 251475 149225 149257 251501 149284 149327 251527 149354 149384 251553 149411 149423 251579 149450 149516 251605 149543 149579 251655 149630 149633 251681 149660 149724 297111 1 
#T 12 0 5031 1 
#T 60 0 362053 362227 362233 362272 362276 362053 365415 362227 362233 365453 362272 362276 1 
#T 64 0 397944 397948 397944 397948 437803 437803 437803 438772 87309 87462 443101 87489 88113 443173 88140 88171 438772 1 
# subpath constraints, in the format 'node1 node2 node3 ... '
# 0 subpath constraints for genome
#S 23655 4961 
#S 4966 49844 
#S 12368 23651 
#S 12368 23651 
#S 4966 49844 
# 1 subpath constraints for genome
#S 68051 87309 
#S 68051 1 
#S 0 67956 67987 68014 68051 87309 
#S 68051 1 
#S 68051 87309 
# 2 subpath constraints for genome
#S 0 145179 
#S 0 145179 
#S 0 145179 
#S 0 145179 
#S 0 145179 
# 3 subpath constraints for genome
#S 169815 1 
#S 0 169706 169714 169731 169735 169760 169762 169764 169788 169815 
#S 0 169706 
#S 0 169706 
#S 169815 1 
# 4 subpath constraints for genome
#S 207094 5024 
#S 23655 1 
#S 0 207033 
#S 0 207033 
#S 23655 1 
# 5 subpath constraints for genome
#S 4966 49844 
#S 3478 4961 4966 5024 5031 5034 12344 
#S 5034 12344 
#S 12368 23651 
#S 12368 23651 
# 6 subpath constraints for genome
#S 149724 297111 
#S 149724 297111 
#S 149724 297111 
#S 149724 297111 
#S 149724 297111 
# 7 subpath constraints for genome
#S 5031 1 
#S 0 5031 
#S 0 5031 
#S 0 5031 
#S 0 5031 
# 8 subpath constraints for genome
#S 362276 1 
#S 362276 1 
#S 362276 1 
#S 362276 1 
#S 362276 1 
# 9 subpath constraints for genome
#S 397948 437803 
#S 397948 437803 
#S 397948 437803 
#S 438772 87309 
#S 438772 87309 
263
1345 1346 50
1346 3470 173
3470 3478 409
3478 3470 184
3478 4961 203
4961 4966 397
4966 5024 213
4966 49844 192
5024 5031 223
5031 5034 244
5031 1 11
5034 12344 190
5034 23651 30
12344 12368 633
12368 12394 429
12368 23651 201
12394 12344 413
12394 23655 257
23651 12394 227
23655 4961 202
23655 1 30
49844 1 50
49844 250339 155
67956 67987 171
67987 68014 103
67987 89101 89
68014 68051 179
68051 87309 88
68051 1 106
87309 87462 154
87462 87489 85
87462 443101 59
87489 88113 173
88113 88140 102
88113 443173 70
88140 88171 168
88171 67956 97
88171 438772 65
89101 68014 78
145179 145180 54
145180 145260 63
145260 145287 44
145260 250365 2
145287 145313 67
145313 145340 45
145313 250391 10
145340 145531 51
145531 145558 44
145531 250417 9
145558 146505 45
146505 146532 38
146505 250443 7
146532 146628 64
146628 146655 53
146628 250469 9
146655 146688 49
146688 146715 37
146688 250495 11
146715 147246 44
147246 147278 57
147246 250526 8
147278 147293 67
147293 147320 53
147293 250552 6
147320 147353 53
147353 147395 53
147353 250593 9
147395 147401 61
147401 147500 44
147401 250691 12
147500 147503 50
147503 147608 48
147503 250795 10
147608 147821 57
147821 147890 48
147821 250863 11
147890 147947 57
147947 147974 41
147947 250889 6
147974 147989 61
147989 148022 58
147989 250921 10
148022 148037 48
148037 148094 52
148037 250977 11
148094 148097 54
148097 148124 47
148097 251003 13
148124 148142 52
148142 148169 43
148142 251029 4
148169 148182 45
148182 148223 40
148182 251069 6
148223 148310 54
148310 148337 45
148310 251095 8
148337 148364 43
148337 251121 3
148364 148372 54
148372 148399 39
148372 251147 13
148399 148457 41
148457 148508 31
148457 251197 16
148508 148520 59
148520 148547 38
148520 251223 13
148547 148605 42
148605 148632 57
148605 251249 8
148632 148661 57
148661 148688 45
148661 251275 13
148688 148766 58
148766 148793 50
148766 251301 5
148793 148826 48
148826 148853 57
148826 251327 6
148853 148892 62
148892 148919 36
148892 251353 5
148919 148985 55
148985 149030 56
148985 251397 12
149030 149063 50
149063 149090 35
149063 251423 9
149090 149167 65
149167 149194 47
149167 251449 9
149194 149198 42
149198 149225 48
149198 251475 8
149225 149257 46
149257 149284 41
149257 251501 7
149284 149327 60
149327 149354 39
149327 251527 10
149354 149384 64
149384 149411 37
149384 251553 6
149411 149423 52
149423 149450 56
149423 251579 6
149450 149516 50
149516 149543 55
149516 251605 5
149543 149579 53
149579 149630 40
149579 251655 11
149630 149633 56
149633 149660 44
149633 251681 11
149660 149724 49
149724 1 38
149724 297111 6
169706 169714 60
169714 169731 177
169731 169735 107
169731 169760 92
169735 169760 64
169735 169762 40
169760 169762 159
169762 169764 214
169764 169788 119
169764 169901 80
169788 169815 83
169788 169901 42
169815 169828 160
169815 1 46
169828 169714 108
169828 169706 34
169901 169815 126
207033 207036 66
207036 207041 90
207041 207094 111
207094 207102 80
207094 5024 27
207102 207136 38
207102 207339 34
207102 207359 29
207136 207148 52
207148 207175 32
207148 207359 32
207175 207223 61
207175 207041 35
207223 207033 27
207223 207036 47
207339 207136 26
207359 207175 59
250339 1 146
250365 145287 10
250391 145340 6
250417 145558 11
250443 146532 13
250469 146655 7
250495 146715 15
250526 147278 6
250552 147320 9
250593 147395 6
250691 147500 6
250795 147608 8
250863 147890 10
250889 147974 12
250921 148022 8
250977 148094 12
251003 148124 12
251029 148169 2
251069 148223 8
251095 148337 9
251121 148364 9
251147 148399 3
251197 148508 6
251223 148547 11
251249 148632 10
251275 148688 5
251301 148793 7
251327 148853 9
251353 148919 5
251397 149030 9
251423 149090 12
251449 149194 7
251475 149225 5
251501 149284 11
251527 149354 3
251553 149411 5
251579 149450 9
251605 149543 8
251655 149630 9
251681 149660 4
297111 1 4
362053 362227 63
362053 365415 67
362227 362233 121
362233 362272 62
362233 365453 55
362272 362276 127
362276 362053 65
362276 1 54
365415 362227 49
365453 362272 49
397944 397948 129
397948 397944 48
397948 437803 61
437803 437803 129
437803 438772 73
438772 87309 62
438772 1 66
443101 87489 72
443173 88140 54
0 1346 153
0 145180 3
0 1345 57
0 67956 80
0 145179 42
0 169706 35
0 207033 34
0 5031 15
0 362053 75
0 397944 66