#gt10.kmer27.(3050000.3100000).V96.E149.mincyc100.e1.0
#construct-flow-graph.py -o graphs-g10-w50000-k27-cyc/ -g 10 -w 50000 -k 27 --mincycles 1 --nreads 5 --readlength 1000 --distribution lognormal11
#kmersize=27
#windowsize=50000
#acyclic=False
#mincycles=1
#distribution=lognormal11
#ngenomes=10
#nreads=5
#readlength=1000
#outdir=graphs-g10-w50000-k27-cyc/
#pdf=False
#erroreps=1.0
#unique source is 0, unique sink is 1
#genomes: GCA_000005845.2_ASM584v2.fna GCA_000006665.1_ASM666v1.fna GCA_000007445.1_ASM744v1.fna GCA_000008865.2_ASM886v2.fna GCA_000009565.2_ASM956v1.fna GCA_000010245.1_ASM1024v1.fna GCA_000010385.1_ASM1038v1.fna GCA_000010485.1_ASM1048v1.fna GCA_000010745.1_ASM1074v1.fna GCA_000010765.1_ASM1076v1.fna 
# ground truth paths, in the format 'weight node1 node2 node3 ... '
#T 23 0 1345 1346 20000 20003 20004 20005 20006 20012 20013 32697 32810 20003 20004 20005 49973 1 
#T 2 0 32697 1 
#T 57 0 122693 148421 148504 148531 148564 148609 148693 148720 148753 148780 148795 148834 149059 149086 149347 149377 149616 149643 149658 149685 149727 149754 149850 149877 149922 1 
#T 60 0 149926 149929 149931 149942 149931 149942 149926 149929 173025 173052 173025 173052 1 
#T 3 0 210500 210514 210656 210670 210500 210514 211015 210656 210670 20004 20005 20006 20012 149929 247156 247160 247226 20006 247254 247226 20006 247254 247156 247160 1 
#T 212 0 1346 20000 20003 20004 20005 20006 20012 20013 32697 32810 20003 20004 20005 49973 251096 1 
#T 156 0 148421 148504 251122 148531 148564 251166 148609 148693 251192 148720 148753 251218 148780 148795 251256 148834 149059 251282 149086 149347 251311 149377 149616 251337 149643 149658 251363 149685 149727 251389 149754 149850 251415 149877 251459 149922 251728 251785 251790 251852 251855 251858 251916 251924 251949 251976 251990 251728 252044 251855 251858 251916 251924 251949 252154 251976 251990 251728 252044 252165 251852 251855 251858 251916 251924 251990 251728 252044 252165 251785 251790 251858 251916 122693 20003 20004 20005 20006 20012 20013 1 
#T 49 0 20000 20003 20004 20005 20006 20012 20013 32810 1 
#T 28 0 350605 350605 350605 395995 396003 395995 396003 1 
#T 34 0 430670 122693 435944 435999 435944 435999 438783 438833 438898 438783 438833 438905 438898 438783 438833 438905 439053 439055 439076 439089 439053 439055 439228 439076 439089 1 
# subpath constraints, in the format 'node1 node2 node3 ... '
# 0 subpath constraints for genome
#S 1346 20000 
#S 20005 49973 
#S 1346 20000 
#S 1346 20000 
#S 1346 20000 
# 1 subpath constraints for genome
#S 32697 1 
#S 0 32697 
#S 0 32697 
#S 0 32697 
#S 32697 1 
# 2 subpath constraints for genome
#S 149727 149754 149850 149877 149922 
#S 122693 148421 
#S 122693 148421 
#S 122693 148421 
#S 0 122693 
# 3 subpath constraints for genome
#S 173052 1 
#S 149942 149926 
#S 149942 149926 
#S 149942 149926 
#S 173052 1 
# 4 subpath constraints for genome
#S 20012 149929 
#S 0 210500 
#S 210514 210656 210670 210500 210514 211015 210656 210670 20004 
#S 210670 20004 20005 20006 20012 149929 
#S 210670 20004 
# 5 subpath constraints for genome
#S 1346 20000 
#S 32810 20003 
#S 32810 20003 
#S 32810 20003 
#S 32810 20003 20004 20005 49973 
# 6 subpath constraints for genome
#S 20013 1 
#S 20013 1 
#S 251916 122693 
#S 251916 122693 
#S 251916 122693 20003 
# 7 subpath constraints for genome
#S 32810 1 
#S 20013 32810 
#S 20013 32810 
#S 20013 32810 
#S 20013 32810 
# 8 subpath constraints for genome
#S 350605 395995 
#S 350605 395995 
#S 350605 395995 
#S 350605 395995 
#S 350605 395995 
# 9 subpath constraints for genome
#S 0 430670 
#S 0 430670 
#S 435999 438783 
#S 435999 438783 438833 438898 
#S 0 430670 
149
1345 1346 22
1346 20000 251
20000 20003 268
20003 20004 705
20004 20005 669
20005 20006 421
20005 49973 239
20006 20012 429
20006 247254 7
20012 20013 405
20012 149929 1
20013 32697 229
20013 1 152
20013 32810 47
32697 32810 225
32697 1 1
32810 20003 261
32810 1 46
49973 1 21
49973 251096 214
122693 148421 48
122693 20003 164
122693 435944 25
148421 148504 216
148504 148531 47
148504 251122 144
148531 148564 228
148564 148609 54
148564 251166 172
148609 148693 212
148693 148720 69
148693 251192 167
148720 148753 231
148753 148780 60
148753 251218 152
148780 148795 203
148795 148834 58
148795 251256 146
148834 149059 198
149059 149086 63
149059 251282 148
149086 149347 199
149347 149377 61
149347 251311 190
149377 149616 213
149616 149643 54
149616 251337 175
149643 149658 222
149658 149685 71
149658 251363 137
149685 149727 210
149727 149754 62
149727 251389 128
149754 149850 227
149850 149877 45
149850 251415 147
149877 149922 59
149877 251459 150
149922 1 48
149922 251728 150
149926 149929 104
149929 149931 60
149929 173025 80
149929 247156 2
149931 149942 117
149942 149931 74
149942 149926 49
173025 173052 101
173052 173025 67
173052 1 55
210500 210514 7
210514 210656 2
210514 211015 3
210656 210670 7
210670 210500 1
210670 20004 2
211015 210656 2
247156 247160 5
247160 247226 2
247160 1 6
247226 20006 9
247254 247156 3
247254 247226 2
251096 1 222
251122 148531 144
251166 148609 162
251192 148720 150
251218 148780 161
251256 148834 162
251282 149086 164
251311 149377 163
251337 149643 179
251363 149685 154
251389 149754 163
251415 149877 137
251459 149922 152
251728 251785 159
251728 252044 476
251785 251790 325
251790 251852 146
251790 251858 153
251852 251855 304
251855 251858 465
251858 251916 582
251916 251924 437
251916 122693 155
251924 251949 354
251924 251990 164
251949 251976 158
251949 252154 168
251976 251990 299
251990 251728 445
252044 251855 170
252044 252165 335
252154 251976 148
252165 251852 155
252165 251785 160
350605 350605 50
350605 395995 31
395995 396003 69
396003 395995 28
396003 1 32
430670 122693 40
435944 435999 74
435999 435944 32
435999 438783 27
438783 438833 94
438833 438898 36
438833 438905 62
438898 438783 89
438905 438898 37
438905 439053 33
439053 439055 68
439055 439076 33
439055 439228 46
439076 439089 70
439089 439053 32
439089 1 36
439228 439076 29
0 1346 211
0 148421 147
0 1345 26
0 32697 3
0 122693 57
0 149926 60
0 210500 1
0 20000 60
0 350605 32
0 430670 31