#gt10.kmer27.(1650000.1700000).V182.E256.mincyc78.e1.0
#construct-flow-graph.py -o graphs-g10-w50000-k27-cyc/ -g 10 -w 50000 -k 27 --mincycles 1 --nreads 5 --readlength 1000 --distribution lognormal11
#kmersize=27
#windowsize=50000
#acyclic=False
#mincycles=1
#distribution=lognormal11
#ngenomes=10
#nreads=5
#readlength=1000
#outdir=graphs-g10-w50000-k27-cyc/
#pdf=False
#erroreps=1.0
#unique source is 0, unique sink is 1
#genomes: GCA_000005845.2_ASM584v2.fna GCA_000006665.1_ASM666v1.fna GCA_000007445.1_ASM744v1.fna GCA_000008865.2_ASM886v2.fna GCA_000009565.2_ASM956v1.fna GCA_000010245.1_ASM1024v1.fna GCA_000010385.1_ASM1038v1.fna GCA_000010485.1_ASM1048v1.fna GCA_000010745.1_ASM1074v1.fna GCA_000010765.1_ASM1076v1.fna 
# ground truth paths, in the format 'weight node1 node2 node3 ... '
#T 39 0 2 2306 2333 48262 49976 1 
#T 21 0 54282 54296 54323 54359 54398 54407 54425 54282 54296 54323 54359 54455 54425 54282 54296 54534 54323 54359 54455 54398 54407 69656 69659 69713 69731 69758 69762 69656 69659 71976 69713 69731 72002 69758 69762 1 
#T 19 0 114793 114802 114805 114817 114826 114844 114871 114896 114922 114926 114947 114980 115007 115049 115063 115085 114793 114802 114805 114817 114826 114926 114947 115217 114980 115007 115258 115049 115063 114802 114805 114871 114896 115380 114922 114926 114947 115085 114817 114826 114844 147348 147421 147460 147502 147553 147559 147590 147736 147763 147838 147865 147878 147910 148027 148117 148124 148184 148216 148264 148288 148315 148372 148399 148463 148505 148549 148605 148708 148756 148792 148819 148990 149035 149037 149083 149087 149148 149231 149258 149285 149304 149331 149339 149389 149423 149450 149503 1 
#T 4 0 152552 152565 152552 152565 178400 178417 178400 178417 1 
#T 19 0 203299 203302 203304 203339 203359 203386 203299 203302 203339 203359 203386 203299 203302 203339 203359 203499 203502 203386 203299 203302 203304 203499 203502 241051 241068 241051 241068 247887 247895 247922 247940 247967 248000 248027 248048 248075 248108 248135 248219 248246 248318 248345 248578 248605 248658 248707 248713 248740 248848 248902 248941 248985 249015 249042 249084 249157 249177 249212 249232 249262 249264 1 
#T 8 0 251017 2 2306 251043 2333 48262 1 
#T 117 0 1 
#T 22 0 247887 247895 301044 247922 247940 301070 247967 248000 301096 248027 248048 301122 248075 248108 301148 248135 248219 301174 248246 248318 301200 248345 248578 301226 248605 248658 301274 248707 248713 301300 248740 248848 301353 248902 248941 301396 248985 249015 301422 249042 249084 301494 249157 249177 301529 249212 249232 301558 249262 249264 350154 1 
#T 23 0 147348 147421 350192 147460 147502 350242 147553 147559 350272 147590 147736 350298 147763 147838 350324 147865 147878 350355 147910 148027 350444 148117 148124 350503 148184 148216 350550 148264 148288 350576 148315 148372 350602 148399 148463 350643 148505 148549 350698 148605 148708 350745 148756 148792 350771 148819 148990 350815 149035 149037 350860 149083 149087 350920 149148 149231 350946 149258 350972 149285 149304 350998 149331 149339 351047 149389 149423 351073 149450 149503 398892 1 
#T 17 0 448867 1 
# subpath constraints, in the format 'node1 node2 node3 ... '
# 0 subpath constraints for genome
#S 2333 48262 
#S 2333 48262 
#S 2333 48262 
#S 2333 48262 
#S 2333 48262 
# 1 subpath constraints for genome
#S 0 54282 
#S 69762 1 
#S 69762 1 
#S 69762 1 
#S 54407 69656 
# 2 subpath constraints for genome
#S 114844 147348 
#S 0 114793 
#S 114844 147348 
#S 114844 147348 
#S 114844 147348 
# 3 subpath constraints for genome
#S 178417 1 
#S 178417 1 
#S 178417 1 
#S 178417 1 
#S 0 152552 
# 4 subpath constraints for genome
#S 203502 241051 
#S 203502 241051 
#S 241068 247887 247895 247922 247940 247967 248000 248027 248048 248075 248108 248135 
#S 203502 241051 
#S 203502 241051 
# 5 subpath constraints for genome
#S 2333 48262 
#S 2333 48262 
#S 2 2306 
#S 0 251017 
#S 2333 48262 
# 6 subpath constraints for genome
#S 0 1 
#S 0 1 
#S 0 1 
#S 0 1 
#S 0 1 
# 7 subpath constraints for genome
#S 249264 350154 
#S 249264 350154 
#S 249264 350154 
#S 249264 350154 
#S 249264 350154 
# 8 subpath constraints for genome
#S 149503 398892 
#S 148399 148463 350643 148505 148549 350698 148605 148708 350745 148756 148792 350771 148819 148990 350815 149035 149037 350860 149083 149087 350920 149148 149231 350946 149258 350972 149285 149304 350998 149331 149339 351047 149389 149423 
#S 149503 398892 
#S 149503 398892 
#S 149503 398892 
# 9 subpath constraints for genome
#S 0 448867 
#S 0 448867 
#S 0 448867 
#S 0 448867 
#S 0 448867 
256
2 2306 54
2306 2333 36
2306 251043 9
2333 48262 43
48262 1 5
48262 49976 53
49976 1 36
54282 54296 62
54296 54323 46
54296 54534 19
54323 54359 70
54359 54398 33
54359 54455 27
54398 54407 36
54407 54425 25
54407 69656 16
54425 54282 45
54455 54425 18
54455 54398 24
54534 54323 29
69656 69659 37
69659 69713 17
69659 71976 23
69713 69731 32
69731 69758 27
69731 72002 20
69758 69762 46
69762 69656 28
69762 1 31
71976 69713 16
72002 69758 25
114793 114802 33
114802 114805 69
114805 114817 46
114805 114871 17
114817 114826 56
114826 114844 38
114826 114926 20
114844 114871 20
114844 147348 12
114871 114896 37
114896 114922 15
114896 115380 11
114922 114926 37
114926 114947 57
114947 114980 18
114947 115217 15
114947 115085 18
114980 115007 32
115007 115049 23
115007 115258 18
115049 115063 37
115063 115085 13
115063 114802 19
115085 114793 11
115085 114817 22
115217 114980 20
115258 115049 16
115380 114922 19
147348 147421 40
147421 147460 17
147421 350192 32
147460 147502 37
147502 147553 21
147502 350242 19
147553 147559 49
147559 147590 22
147559 350272 23
147590 147736 43
147736 147763 16
147736 350298 9
147763 147838 45
147838 147865 21
147838 350324 24
147865 147878 33
147878 147910 19
147878 350355 21
147910 148027 33
148027 148117 14
148027 350444 25
148117 148124 44
148124 148184 17
148124 350503 30
148184 148216 40
148216 148264 17
148216 350550 23
148264 148288 39
148288 148315 17
148288 350576 20
148315 148372 40
148372 148399 16
148372 350602 17
148399 148463 39
148463 148505 20
148463 350643 31
148505 148549 43
148549 148605 14
148549 350698 32
148605 148708 38
148708 148756 14
148708 350745 20
148756 148792 43
148792 148819 22
148792 350771 24
148819 148990 46
148990 149035 14
148990 350815 28
149035 149037 33
149037 149083 12
149037 350860 24
149083 149087 45
149087 149148 23
149087 350920 23
149148 149231 36
149231 149258 21
149231 350946 22
149258 149285 24
149258 350972 21
149285 149304 46
149304 149331 22
149304 350998 22
149331 149339 44
149339 149389 22
149339 351047 22
149389 149423 48
149423 149450 17
149423 351073 25
149450 149503 51
149503 1 19
149503 398892 31
152552 152565 6
152565 152552 4
152565 178400 5
178400 178417 4
178417 178400 3
178417 1 7
203299 203302 75
203302 203304 42
203302 203339 39
203304 203339 29
203304 203499 15
203339 203359 64
203359 203386 38
203359 203499 18
203386 203299 58
203499 203502 48
203502 203386 16
203502 241051 14
241051 241068 41
241068 241051 10
241068 247887 19
247887 247895 45
247895 247922 23
247895 301044 18
247922 247940 39
247940 247967 15
247940 301070 24
247967 248000 47
248000 248027 12
248000 301096 23
248027 248048 46
248048 248075 17
248048 301122 21
248075 248108 43
248108 248135 13
248108 301148 21
248135 248219 49
248219 248246 15
248219 301174 20
248246 248318 49
248318 248345 23
248318 301200 19
248345 248578 48
248578 248605 23
248578 301226 26
248605 248658 41
248658 248707 16
248658 301274 19
248707 248713 34
248713 248740 26
248713 301300 23
248740 248848 33
248848 248902 19
248848 301353 26
248902 248941 42
248941 248985 17
248941 301396 19
248985 249015 43
249015 249042 16
249015 301422 26
249042 249084 45
249084 249157 22
249084 301494 26
249157 249177 46
249177 249212 26
249177 301529 19
249212 249232 49
249232 249262 14
249232 301558 18
249262 249264 34
249264 1 24
249264 350154 21
251017 2 7
251043 2333 8
301044 247922 25
301070 247967 22
301096 248027 36
301122 248075 24
301148 248135 23
301174 248246 20
301200 248345 20
301226 248605 26
301274 248707 24
301300 248740 26
301353 248902 13
301396 248985 20
301422 249042 12
301494 249157 25
301529 249212 21
301558 249262 29
350154 1 26
350192 147460 27
350242 147553 23
350272 147590 19
350298 147763 12
350324 147865 21
350355 147910 23
350444 148117 20
350503 148184 38
350550 148264 26
350576 148315 27
350602 148399 27
350643 148505 22
350698 148605 20
350745 148756 25
350771 148819 24
350815 149035 19
350860 149083 21
350920 149148 20
350946 149258 31
350972 149285 31
350998 149331 28
351047 149389 12
351073 149450 17
398892 1 21
448867 1 16
0 2 36
0 247887 29
0 147348 26
0 54282 22
0 114793 19
0 152552 3
0 203299 22
0 251017 14
0 1 138
0 448867 22