#gt10.kmer27.(3750000.3800000).V216.E300.mincyc39.e1.0
#construct-flow-graph.py -o graphs-g10-w50000-k27-cyc/ -g 10 -w 50000 -k 27 --mincycles 1 --nreads 5 --readlength 1000 --distribution lognormal11
#kmersize=27
#windowsize=50000
#acyclic=False
#mincycles=1
#distribution=lognormal11
#ngenomes=10
#nreads=5
#readlength=1000
#outdir=graphs-g10-w50000-k27-cyc/
#pdf=False
#erroreps=1.0
#unique source is 0, unique sink is 1
#genomes: GCA_000005845.2_ASM584v2.fna GCA_000006665.1_ASM666v1.fna GCA_000007445.1_ASM744v1.fna GCA_000008865.2_ASM886v2.fna GCA_000009565.2_ASM956v1.fna GCA_000010245.1_ASM1024v1.fna GCA_000010385.1_ASM1038v1.fna GCA_000010485.1_ASM1048v1.fna GCA_000010745.1_ASM1074v1.fna GCA_000010765.1_ASM1076v1.fna 
# ground truth paths, in the format 'weight node1 node2 node3 ... '
#T 16 0 3442 15468 15545 15572 15625 15763 15798 15825 15829 15856 15868 15871 15468 15545 17246 15572 15625 17383 15763 15798 17409 15825 15829 17435 15856 15868 15871 15868 3442 24045 24049 45300 45510 45561 45600 45658 45669 45720 45772 45799 45814 45841 45981 46008 46063 46090 46101 46128 46155 46182 46216 46260 46269 46296 46320 46356 46512 46539 46605 46632 46650 46677 46771 46803 46845 46872 46897 46927 46980 47007 47011 47038 47067 47094 47148 47175 47259 47286 47310 47337 47493 47523 47547 47574 47604 47675 47702 47703 47730 47791 47867 47932 47959 47961 48016 48061 48088 48089 48179 48182 48209 48295 48345 48362 48418 48428 48455 48482 48535 48574 48579 48606 48644 48680 48701 48749 48755 48782 48790 48821 48839 48905 48941 49040 49043 49073 49091 49139 49147 49174 49181 49242 49270 49415 49423 49471 49480 49518 49570 49603 49618 49648 49681 49708 49717 49744 49765 1 
#T 144 0 1 
#T 35 0 149735 1 
#T 37 0 193794 193799 193826 193865 193894 193928 193794 193799 194212 193826 193865 194240 193894 193928 1 
#T 199 0 216004 216009 216016 216074 216078 1 
#T 34 0 24045 24049 262397 262405 1 
#T 5 0 349549 1 
#T 33 0 45300 45510 349599 45561 45600 349656 45658 45669 349706 45720 45772 349732 45799 45814 349758 45841 45981 349784 46008 46063 349810 46090 46101 349836 46128 349862 46155 349888 46182 46216 349931 46260 46269 349957 46296 46320 349992 46356 46512 350018 46539 46605 350044 46632 46650 350070 46677 46771 350101 46803 46845 350127 46872 46897 350156 46927 46980 350182 47007 47011 350208 47038 47067 350234 47094 47148 350260 47175 47259 350286 47286 47310 350312 47337 47493 350341 47523 47547 350367 47574 350396 47604 47675 350422 47702 47703 350448 47730 47791 350523 47867 47932 350549 47959 47961 350603 48016 48061 350629 48088 48089 350718 48179 48182 350744 48209 48295 350793 48345 48362 350848 48418 48428 350874 48455 350900 48482 48535 350938 48574 48579 350964 48606 48644 350999 48680 48701 351046 48749 48755 351072 48782 48790 351102 48821 48839 351167 48905 48941 351265 49040 49043 351294 49073 49091 351341 49139 49147 351367 49174 49181 351427 49242 49270 351571 49415 49423 351618 49471 49480 351655 49518 49570 351687 49603 49618 351716 49648 49681 351742 49708 49717 351768 49744 49765 397277 1 
#T 125 0 262397 262405 410860 410861 216074 216078 216016 410860 410861 1 
#T 17 0 468746 216004 216009 1 
# subpath constraints, in the format 'node1 node2 node3 ... '
# 0 subpath constraints for genome
#S 24049 45300 
#S 3442 24045 
#S 3442 15468 
#S 47148 47175 47259 47286 47310 47337 47493 47523 47547 47574 47604 47675 47702 47703 47730 47791 47867 47932 47959 47961 48016 48061 48088 48089 48179 
#S 3442 15468 
# 1 subpath constraints for genome
#S 0 1 
#S 0 1 
#S 0 1 
#S 0 1 
#S 0 1 
# 2 subpath constraints for genome
#S 0 149735 
#S 0 149735 
#S 0 149735 
#S 0 149735 
#S 0 149735 
# 3 subpath constraints for genome
#S 0 193794 
#S 0 193794 
#S 0 193794 
#S 0 193794 
#S 0 193794 
# 4 subpath constraints for genome
#S 0 216004 
#S 216078 1 
#S 0 216004 
#S 0 216004 
#S 0 216004 
# 5 subpath constraints for genome
#S 262405 1 
#S 262405 1 
#S 262405 1 
#S 262405 1 
#S 262405 1 
# 6 subpath constraints for genome
#S 0 349549 
#S 0 349549 
#S 0 349549 
#S 0 349549 
#S 0 349549 
# 7 subpath constraints for genome
#S 49765 397277 
#S 49765 397277 
#S 49765 397277 
#S 49765 397277 
#S 49765 397277 
# 8 subpath constraints for genome
#S 410861 1 
#S 410861 1 
#S 410861 1 
#S 410861 1 
#S 410861 1 
# 9 subpath constraints for genome
#S 0 468746 
#S 0 468746 
#S 216009 1 
#S 0 468746 
#S 216009 1 
300
3442 15468 18
3442 24045 18
15468 15545 52
15545 15572 9
15545 17246 22
15572 15625 29
15625 15763 17
15625 17383 16
15763 15798 24
15798 15825 12
15798 17409 16
15825 15829 33
15829 15856 17
15829 17435 20
15856 15868 27
15868 15871 29
15868 3442 20
15871 15468 15
15871 15868 17
17246 15572 16
17383 15763 16
17409 15825 14
17435 15856 18
24045 24049 48
24049 45300 14
24049 262397 43
45300 45510 39
45510 45561 13
45510 349599 29
45561 45600 54
45600 45658 14
45600 349656 28
45658 45669 37
45669 45720 21
45669 349706 40
45720 45772 47
45772 45799 12
45772 349732 31
45799 45814 33
45814 45841 19
45814 349758 41
45841 45981 36
45981 46008 16
45981 349784 32
46008 46063 43
46063 46090 18
46063 349810 36
46090 46101 56
46101 46128 18
46101 349836 37
46128 46155 17
46128 349862 33
46155 46182 11
46155 349888 34
46182 46216 59
46216 46260 22
46216 349931 44
46260 46269 50
46269 46296 13
46269 349957 30
46296 46320 63
46320 46356 21
46320 349992 30
46356 46512 42
46512 46539 17
46512 350018 33
46539 46605 52
46605 46632 9
46605 350044 31
46632 46650 48
46650 46677 15
46650 350070 29
46677 46771 59
46771 46803 8
46771 350101 29
46803 46845 46
46845 46872 20
46845 350127 30
46872 46897 57
46897 46927 13
46897 350156 37
46927 46980 41
46980 47007 17
46980 350182 29
47007 47011 50
47011 47038 16
47011 350208 42
47038 47067 53
47067 47094 18
47067 350234 27
47094 47148 39
47148 47175 16
47148 350260 34
47175 47259 47
47259 47286 18
47259 350286 34
47286 47310 54
47310 47337 21
47310 350312 32
47337 47493 58
47493 47523 17
47493 350341 20
47523 47547 65
47547 47574 19
47547 350367 31
47574 47604 19
47574 350396 42
47604 47675 45
47675 47702 19
47675 350422 34
47702 47703 54
47703 47730 24
47703 350448 41
47730 47791 50
47791 47867 10
47791 350523 28
47867 47932 51
47932 47959 15
47932 350549 31
47959 47961 42
47961 48016 15
47961 350603 31
48016 48061 49
48061 48088 18
48061 350629 28
48088 48089 49
48089 48179 18
48089 350718 31
48179 48182 48
48182 48209 21
48182 350744 26
48209 48295 50
48295 48345 24
48295 350793 31
48345 48362 52
48362 48418 10
48362 350848 33
48418 48428 54
48428 48455 15
48428 350874 31
48455 48482 24
48455 350900 30
48482 48535 44
48535 48574 17
48535 350938 34
48574 48579 56
48579 48606 12
48579 350964 40
48606 48644 42
48644 48680 20
48644 350999 34
48680 48701 43
48701 48749 16
48701 351046 18
48749 48755 48
48755 48782 21
48755 351072 38
48782 48790 53
48790 48821 14
48790 351102 43
48821 48839 54
48839 48905 24
48839 351167 41
48905 48941 43
48941 49040 19
48941 351265 27
49040 49043 44
49043 49073 15
49043 351294 39
49073 49091 59
49091 49139 16
49091 351341 31
49139 49147 42
49147 49174 11
49147 351367 31
49174 49181 54
49181 49242 21
49181 351427 37
49242 49270 57
49270 49415 11
49270 351571 27
49415 49423 39
49423 49471 14
49423 351618 37
49471 49480 55
49480 49518 7
49480 351655 34
49518 49570 46
49570 49603 18
49570 351687 28
49603 49618 42
49618 49648 20
49618 351716 23
49648 49681 42
49681 49708 18
49681 351742 37
49708 49717 49
49717 49744 17
49717 351768 41
49744 49765 50
49765 1 14
49765 397277 30
149735 1 37
193794 193799 91
193799 193826 47
193799 194212 35
193826 193865 74
193865 193894 36
193865 194240 35
193894 193928 78
193928 193794 37
193928 1 33
194212 193826 44
194240 193894 37
216004 216009 217
216009 216016 215
216009 1 15
216016 216074 169
216016 410860 111
216074 216078 325
216078 1 198
216078 216016 126
262397 262405 153
262405 1 28
262405 410860 112
349549 1 4
349599 45561 37
349656 45658 32
349706 45720 35
349732 45799 40
349758 45841 27
349784 46008 36
349810 46090 29
349836 46128 28
349862 46155 35
349888 46182 27
349931 46260 39
349957 46296 31
349992 46356 44
350018 46539 33
350044 46632 48
350070 46677 38
350101 46803 42
350127 46872 41
350156 46927 46
350182 47007 30
350208 47038 44
350234 47094 36
350260 47175 31
350286 47286 32
350312 47337 24
350341 47523 31
350367 47574 37
350396 47604 26
350422 47702 32
350448 47730 38
350523 47867 27
350549 47959 24
350603 48016 30
350629 48088 24
350718 48179 27
350744 48209 28
350793 48345 35
350848 48418 39
350874 48455 32
350900 48482 40
350938 48574 29
350964 48606 43
350999 48680 24
351046 48749 39
351072 48782 35
351102 48821 27
351167 48905 26
351265 49040 30
351294 49073 30
351341 49139 40
351367 49174 28
351427 49242 31
351571 49415 32
351618 49471 30
351655 49518 23
351687 49603 40
351716 49648 19
351742 49708 24
351768 49744 33
397277 1 30
410860 410861 234
410861 216074 111
410861 1 136
468746 216004 15
0 45300 28
0 3442 12
0 1 158
0 149735 36
0 193794 36
0 216004 173
0 24045 44
0 349549 6
0 262397 103
0 468746 15