#gt10.kmer27.(3550000.3600000).V189.E271.mincyc100.e1.0
#construct-flow-graph.py -o graphs-g10-w50000-k27-cyc/ -g 10 -w 50000 -k 27 --mincycles 1 --nreads 5 --readlength 1000 --distribution lognormal11
#kmersize=27
#windowsize=50000
#acyclic=False
#mincycles=1
#distribution=lognormal11
#ngenomes=10
#nreads=5
#readlength=1000
#outdir=graphs-g10-w50000-k27-cyc/
#pdf=False
#erroreps=1.0
#unique source is 0, unique sink is 1
#genomes: GCA_000005845.2_ASM584v2.fna GCA_000006665.1_ASM666v1.fna GCA_000007445.1_ASM744v1.fna GCA_000008865.2_ASM886v2.fna GCA_000009565.2_ASM956v1.fna GCA_000010245.1_ASM1024v1.fna GCA_000010385.1_ASM1038v1.fna GCA_000010485.1_ASM1048v1.fna GCA_000010745.1_ASM1074v1.fna GCA_000010765.1_ASM1076v1.fna 
# ground truth paths, in the format 'weight node1 node2 node3 ... '
#T 44 0 13582 13586 42564 42565 46265 46404 46441 46480 46507 46525 46552 46591 46630 46642 46693 46698 46725 46726 46810 46888 46933 46972 47002 47029 47125 47157 47158 47185 47212 47293 47311 47338 47575 47602 47608 47690 47744 47885 47955 47982 47988 48027 48048 48099 48141 48204 48240 13582 13586 48457 48464 48467 48564 48567 48597 48610 48723 48729 48768 48780 48807 48867 48912 48975 46888 49037 49058 49085 49088 49139 49169 49247 49277 49307 49370 49442 49484 49487 49514 49568 49642 49669 49676 49732 49746 49773 49823 49863 49910 49943 49949 1 
#T 48 0 57684 57687 57684 57687 57684 57687 57684 57687 57684 57687 57684 57687 57684 57687 59056 59058 59056 59058 59056 59058 59056 59058 59056 59058 59056 59058 59056 59058 59056 59058 59056 59058 59056 59058 59056 59058 59056 59058 59056 59058 59056 59058 83412 48464 83415 48464 1 
#T 20 0 111319 111329 1 
#T 50 0 48457 48464 48467 198209 198212 198213 198209 198212 198209 198212 198213 1 
#T 19 0 210865 210881 210895 210912 210922 210939 210945 210972 210993 211028 211029 211047 211052 211099 211109 211150 211177 211181 211209 211221 211234 211263 211337 210881 210895 210922 210939 210945 211415 210972 210993 211442 211047 211052 211514 211099 211109 211150 211540 211177 211181 211221 211234 211607 211263 211337 210865 210881 210895 210912 210939 210945 210972 210993 211442 211028 211029 211109 211150 211177 211181 211209 219825 219907 219825 219907 247587 1 
#T 111 0 255836 111319 111329 265405 265406 42564 42565 272289 272293 272289 272293 1 
#T 14 0 83412 48464 83415 322689 322741 1 
#T 25 0 46265 46404 349182 46441 46480 349208 46507 46525 349234 46552 46591 349272 46630 46642 349322 46693 46698 349348 46725 46726 349431 46810 46888 46933 349469 46972 47002 349495 47029 47125 349526 47157 47158 349552 47185 47212 349632 47293 47311 349658 47338 47575 349684 47602 47608 349764 47690 47744 349904 47885 47955 349930 47982 47988 349968 48027 48048 350018 48099 48141 350080 48204 48240 48564 48567 351195 48597 48610 351307 48723 48729 351345 48768 48780 351371 48807 48867 351415 48912 48975 49037 49058 351503 49085 49088 351553 49139 351582 49169 49247 351611 49277 49307 351673 49370 49442 351714 49484 49487 351740 49514 351793 49568 49642 351819 49669 49676 351874 49732 49746 351900 49773 49823 351939 49863 49910 351971 49943 49949 397489 1 
#T 2 0 265405 265406 412876 412881 412908 412914 413010 413037 413056 412876 412881 413293 412908 412914 413388 413010 413414 413037 413056 247587 322689 322741 447374 1 
#T 30 0 1 
# subpath constraints, in the format 'node1 node2 node3 ... '
# 0 subpath constraints for genome
#S 0 13582 
#S 0 13582 
#S 0 13582 
#S 13586 42564 
#S 13586 42564 
# 1 subpath constraints for genome
#S 59058 83412 
#S 83415 48464 
#S 59058 83412 
#S 59058 83412 
#S 59058 83412 
# 2 subpath constraints for genome
#S 0 111319 
#S 0 111319 
#S 111329 1 
#S 111329 1 
#S 111329 1 
# 3 subpath constraints for genome
#S 48467 198209 
#S 48467 198209 
#S 48467 198209 
#S 0 48457 
#S 48467 198209 
# 4 subpath constraints for genome
#S 0 210865 
#S 219907 247587 
#S 211209 219825 
#S 0 210865 
#S 211150 211177 211181 211209 219825 
# 5 subpath constraints for genome
#S 272293 272289 272293 1 
#S 272293 272289 
#S 272293 1 
#S 272293 1 
#S 272293 1 
# 6 subpath constraints for genome
#S 322741 1 
#S 0 83412 
#S 83415 322689 322741 1 
#S 322741 1 
#S 322741 1 
# 7 subpath constraints for genome
#S 49949 397489 
#S 49949 397489 
#S 49949 397489 
#S 49949 397489 
#S 49949 397489 
# 8 subpath constraints for genome
#S 413056 247587 
#S 322741 447374 
#S 322741 447374 
#S 265406 412876 412881 412908 412914 413010 413037 413056 412876 412881 413293 412908 412914 413388 413010 413414 413037 413056 247587 
#S 265406 412876 
# 9 subpath constraints for genome
#S 0 1 
#S 0 1 
#S 0 1 
#S 0 1 
#S 0 1 
271
13582 13586 75
13586 42564 46
13586 48457 43
42564 42565 161
42565 46265 56
42565 272289 113
46265 46404 51
46404 46441 45
46404 349182 23
46441 46480 68
46480 46507 44
46480 349208 26
46507 46525 89
46525 46552 35
46525 349234 33
46552 46591 70
46591 46630 52
46591 349272 26
46630 46642 85
46642 46693 40
46642 349322 32
46693 46698 60
46698 46725 50
46698 349348 22
46725 46726 71
46726 46810 36
46726 349431 28
46810 46888 71
46888 46933 72
46888 49037 44
46933 46972 47
46933 349469 20
46972 47002 68
47002 47029 36
47002 349495 29
47029 47125 84
47125 47157 53
47125 349526 29
47157 47158 69
47158 47185 44
47158 349552 29
47185 47212 79
47212 47293 43
47212 349632 22
47293 47311 61
47311 47338 43
47311 349658 22
47338 47575 62
47575 47602 41
47575 349684 26
47602 47608 72
47608 47690 48
47608 349764 34
47690 47744 56
47744 47885 38
47744 349904 24
47885 47955 61
47955 47982 37
47955 349930 29
47982 47988 71
47988 48027 28
47988 349968 39
48027 48048 61
48048 48099 46
48048 350018 23
48099 48141 61
48141 48204 50
48141 350080 24
48204 48240 48
48240 13582 35
48240 48564 17
48457 48464 93
48464 48467 93
48464 83415 60
48464 1 57
48467 48564 50
48467 198209 46
48564 48567 70
48567 48597 42
48567 351195 20
48597 48610 71
48610 48723 40
48610 351307 35
48723 48729 64
48729 48768 38
48729 351345 26
48768 48780 87
48780 48807 50
48780 351371 31
48807 48867 70
48867 48912 34
48867 351415 21
48912 48975 56
48975 46888 42
48975 49037 25
49037 49058 73
49058 49085 43
49058 351503 27
49085 49088 71
49088 49139 46
49088 351553 29
49139 49169 53
49139 351582 21
49169 49247 79
49247 49277 41
49247 351611 28
49277 49307 53
49307 49370 30
49307 351673 18
49370 49442 63
49442 49484 52
49442 351714 18
49484 49487 91
49487 49514 55
49487 351740 23
49514 49568 39
49514 351793 23
49568 49642 87
49642 49669 41
49642 351819 17
49669 49676 58
49676 49732 46
49676 351874 21
49732 49746 56
49746 49773 43
49746 351900 27
49773 49823 56
49823 49863 48
49823 351939 28
49863 49910 61
49910 49943 52
49910 351971 25
49943 49949 67
49949 1 43
49949 397489 17
57684 57687 285
57687 57684 248
57687 59056 49
59056 59058 730
59058 59056 613
59058 83412 39
83412 48464 81
83415 48464 50
83415 322689 23
111319 111329 135
111329 1 22
111329 265405 100
198209 198212 130
198212 198213 87
198212 198209 49
198213 198209 56
198213 1 35
210865 210881 38
210881 210895 56
210895 210912 37
210895 210922 23
210912 210922 32
210912 210939 22
210922 210939 34
210939 210945 58
210945 210972 44
210945 211415 15
210972 210993 60
210993 211028 27
210993 211442 34
211028 211029 38
211029 211047 11
211029 211109 22
211047 211052 42
211052 211099 18
211052 211514 15
211099 211109 33
211109 211150 63
211150 211177 38
211150 211540 22
211177 211181 49
211181 211209 35
211181 211221 11
211209 211221 23
211209 219825 15
211221 211234 38
211234 211263 20
211234 211607 23
211263 211337 42
211337 210881 18
211337 210865 24
211415 210972 15
211442 211047 29
211442 211028 14
211514 211099 20
211540 211177 21
211607 211263 15
219825 219907 47
219907 219825 27
219907 247587 10
247587 1 18
247587 322689 2
255836 111319 116
265405 265406 114
265406 42564 106
265406 412876 1
272289 272293 237
272293 272289 124
272293 1 117
322689 322741 23
322741 1 14
322741 447374 2
349182 46441 31
349208 46507 21
349234 46552 29
349272 46630 24
349322 46693 34
349348 46725 22
349431 46810 29
349469 46972 21
349495 47029 19
349526 47157 22
349552 47185 28
349632 47293 25
349658 47338 17
349684 47602 17
349764 47690 35
349904 47885 30
349930 47982 21
349968 48027 31
350018 48099 31
350080 48204 28
351195 48597 33
351307 48723 22
351345 48768 21
351371 48807 24
351415 48912 27
351503 49085 33
351553 49139 25
351582 49169 15
351611 49277 18
351673 49370 30
351714 49484 26
351740 49514 36
351793 49568 24
351819 49669 31
351874 49732 21
351900 49773 25
351939 49863 27
351971 49943 24
397489 1 22
412876 412881 9
412881 412908 2
412881 413293 3
412908 412914 5
412914 413010 2
412914 413388 1
413010 413037 1
413010 413414 3
413037 413056 4
413056 412876 2
413056 247587 2
413293 412908 1
413388 413010 3
413414 413037 1
447374 1 3
0 13582 44
0 57684 52
0 111319 25
0 48457 44
0 210865 13
0 255836 112
0 83412 12
0 46265 18
0 265405 1
0 1 34