#gt10.kmer27.(3500000.3550000).V198.E281.mincyc100.e1.0
#construct-flow-graph.py -o graphs-g10-w50000-k27-cyc/ -g 10 -w 50000 -k 27 --mincycles 1 --nreads 5 --readlength 1000 --distribution lognormal11
#kmersize=27
#windowsize=50000
#acyclic=False
#mincycles=1
#distribution=lognormal11
#ngenomes=10
#nreads=5
#readlength=1000
#outdir=graphs-g10-w50000-k27-cyc/
#pdf=False
#erroreps=1.0
#unique source is 0, unique sink is 1
#genomes: GCA_000005845.2_ASM584v2.fna GCA_000006665.1_ASM666v1.fna GCA_000007445.1_ASM744v1.fna GCA_000008865.2_ASM886v2.fna GCA_000009565.2_ASM956v1.fna GCA_000010245.1_ASM1024v1.fna GCA_000010385.1_ASM1038v1.fna GCA_000010485.1_ASM1048v1.fna GCA_000010745.1_ASM1074v1.fna GCA_000010765.1_ASM1076v1.fna 
# ground truth paths, in the format 'weight node1 node2 node3 ... '
#T 37 0 4785 4797 12511 12512 12513 12515 12565 12566 12575 12578 12581 12587 45466 45505 45532 45652 45679 45760 45787 45808 45838 45859 45940 45946 45976 46025 46066 46124 46129 46156 46159 46321 46351 46544 46572 46602 46653 46680 46689 46728 46737 46767 46773 46815 46884 46914 46926 46953 47055 47082 47142 47184 47232 47262 47298 47325 47328 47355 47370 47397 47410 47437 47448 47475 47601 47628 47709 47758 47854 47933 47937 47964 47979 48006 48012 48048 48060 48090 48096 48141 48144 48231 48243 48294 48348 48432 48435 48486 48498 48525 48699 48729 48801 48828 48855 48945 49053 49080 49098 49125 49211 49238 49277 49338 49392 49419 49446 49530 49707 49737 49770 49911 49976 1 
#T 79 0 1 
#T 52 0 149926 1 
#T 43 0 166315 166315 182382 182385 191985 191993 192046 192054 192078 192079 191985 191993 192046 192054 192185 192078 192079 192225 191993 192046 192054 192225 191993 192046 1 
#T 20 0 201286 201294 210167 210199 210167 210199 235228 235232 235282 4785 4797 12512 12513 12565 12566 12575 12578 12581 12587 1 
#T 67 0 12512 12513 12515 258235 12566 12575 12578 291548 291563 291584 291594 291627 291641 291659 291668 291594 291627 291641 291659 291584 291594 291627 291641 291668 291594 291627 291548 291563 1 
#T 109 0 235282 4785 4797 337097 12511 12512 12513 12515 258235 12575 12578 12581 337238 337238 1 
#T 110 0 45466 45505 349341 45532 45652 349367 45679 45760 349393 45787 45808 349422 45838 45859 349502 45940 45946 349531 45976 46025 349571 46066 349628 46124 46129 349654 46156 46159 349819 46321 46351 350011 46544 46572 350040 46602 46653 350066 46680 46689 350104 46728 46737 350133 46767 46773 350174 46815 46884 350203 46914 46926 350229 46953 47055 350255 47082 47142 350296 47184 47232 350325 47262 47298 350351 47325 47328 350377 47355 47370 350403 47397 47410 350429 47437 47448 350455 47475 47601 350481 47628 47709 350529 47758 47854 201286 201294 47933 47937 350624 47964 47979 350650 48006 48012 350685 48048 48060 350714 48090 48096 350758 48141 48144 350844 48231 48243 350894 48294 48348 350977 48432 48435 351027 48486 48498 351053 48525 48699 351082 48729 48801 351108 48828 48855 351197 48945 49053 351223 49080 49098 351249 49125 49211 351275 49238 49277 351335 49338 49392 351361 49419 49446 351444 49530 49707 351473 49737 49770 351613 49911 49976 235228 235232 1 
#T 31 0 182382 182385 1 
#T 26 0 462205 462260 462309 462205 462260 462362 462309 462205 462260 1 
# subpath constraints, in the format 'node1 node2 node3 ... '
# 0 subpath constraints for genome
#S 45679 45760 45787 45808 45838 45859 45940 45946 45976 46025 46066 46124 46129 46156 46159 46321 46351 46544 46572 46602 46653 46680 46689 46728 
#S 12587 45466 
#S 12587 45466 
#S 12587 45466 
#S 12587 45466 
# 1 subpath constraints for genome
#S 0 1 
#S 0 1 
#S 0 1 
#S 0 1 
#S 0 1 
# 2 subpath constraints for genome
#S 0 149926 
#S 0 149926 
#S 0 149926 
#S 0 149926 
#S 0 149926 
# 3 subpath constraints for genome
#S 0 166315 
#S 182385 191985 
#S 166315 166315 
#S 166315 166315 
#S 166315 166315 
# 4 subpath constraints for genome
#S 201294 210167 
#S 210199 235228 
#S 4797 12512 12513 12565 12566 12575 12578 12581 12587 1 
#S 201294 210167 
#S 210199 235228 235232 235282 4785 4797 12512 
# 5 subpath constraints for genome
#S 12578 291548 
#S 0 12512 
#S 12578 291548 
#S 12578 291548 
#S 12578 291548 
# 6 subpath constraints for genome
#S 4797 337097 
#S 337238 1 
#S 0 235282 
#S 0 235282 
#S 4797 337097 
# 7 subpath constraints for genome
#S 49976 235228 
#S 49976 235228 
#S 49976 235228 
#S 49976 235228 
#S 49976 235228 
# 8 subpath constraints for genome
#S 0 182382 
#S 0 182382 
#S 0 182382 
#S 0 182382 
#S 0 182382 
# 9 subpath constraints for genome
#S 0 462205 462260 462309 462205 462260 462362 462309 462205 462260 1 
#S 462260 1 
#S 462260 1 
#S 462260 1 
#S 462260 1 
281
4785 4797 167
4797 12511 24
4797 12512 20
4797 337097 112
12511 12512 136
12512 12513 228
12513 12515 225
12513 12565 13
12515 258235 186
12515 12565 31
12565 12566 59
12566 12575 141
12575 12578 226
12578 12581 153
12578 291548 73
12581 12587 57
12581 337238 108
12587 45466 33
12587 1 20
45466 45505 143
45505 45532 37
45505 349341 119
45532 45652 150
45652 45679 33
45652 349367 107
45679 45760 166
45760 45787 29
45760 349393 122
45787 45808 164
45808 45838 44
45808 349422 99
45838 45859 135
45859 45940 54
45859 349502 116
45940 45946 157
45946 45976 38
45946 349531 111
45976 46025 129
46025 46066 37
46025 349571 130
46066 46124 32
46066 349628 107
46124 46129 159
46129 46156 36
46129 349654 120
46156 46159 131
46159 46321 37
46159 349819 116
46321 46351 147
46351 46544 44
46351 350011 107
46544 46572 150
46572 46602 29
46572 350040 119
46602 46653 146
46653 46680 50
46653 350066 115
46680 46689 135
46689 46728 48
46689 350104 121
46728 46737 174
46737 46767 28
46737 350133 100
46767 46773 139
46773 46815 33
46773 350174 90
46815 46884 149
46884 46914 28
46884 350203 120
46914 46926 161
46926 46953 41
46926 350229 115
46953 47055 136
47055 47082 26
47055 350255 115
47082 47142 142
47142 47184 35
47142 350296 122
47184 47232 160
47232 47262 36
47232 350325 109
47262 47298 127
47298 47325 46
47298 350351 97
47325 47328 156
47328 47355 35
47328 350377 99
47355 47370 153
47370 47397 37
47370 350403 104
47397 47410 146
47410 47437 39
47410 350429 107
47437 47448 137
47448 47475 38
47448 350455 102
47475 47601 143
47601 47628 33
47601 350481 114
47628 47709 138
47709 47758 30
47709 350529 114
47758 47854 170
47854 47933 49
47854 201286 106
47933 47937 132
47937 47964 37
47937 350624 110
47964 47979 168
47979 48006 34
47979 350650 119
48006 48012 148
48012 48048 37
48012 350685 134
48048 48060 145
48060 48090 30
48060 350714 101
48090 48096 147
48096 48141 29
48096 350758 80
48141 48144 153
48144 48231 37
48144 350844 96
48231 48243 139
48243 48294 48
48243 350894 101
48294 48348 161
48348 48432 48
48348 350977 87
48432 48435 158
48435 48486 46
48435 351027 113
48486 48498 147
48498 48525 40
48498 351053 128
48525 48699 132
48699 48729 35
48699 351082 121
48729 48801 160
48801 48828 42
48801 351108 122
48828 48855 143
48855 48945 45
48855 351197 106
48945 49053 136
49053 49080 30
49053 351223 116
49080 49098 149
49098 49125 30
49098 351249 109
49125 49211 143
49211 49238 29
49211 351275 106
49238 49277 145
49277 49338 35
49277 351335 114
49338 49392 149
49392 49419 40
49392 351361 104
49419 49446 128
49446 49530 39
49446 351444 113
49530 49707 129
49707 49737 36
49707 351473 93
49737 49770 146
49770 49911 45
49770 351613 109
49911 49976 146
49976 1 34
49976 235228 106
149926 1 67
166315 166315 38
166315 182382 47
182382 182385 84
182385 191985 51
182385 1 35
191985 191993 93
191993 192046 165
192046 192054 133
192046 1 40
192054 192078 46
192054 192185 51
192054 192225 59
192078 192079 79
192079 191985 44
192079 192225 39
192185 192078 58
192225 191993 89
201286 201294 126
201294 210167 25
201294 47933 115
210167 210199 34
210199 210167 15
210199 235228 25
235228 235232 116
235232 235282 15
235232 1 101
235282 4785 133
258235 12566 61
258235 12575 124
291548 291563 137
291563 291584 68
291563 1 59
291584 291594 133
291594 291627 262
291627 291641 190
291627 291548 62
291641 291659 146
291641 291668 67
291659 291668 71
291659 291584 64
291668 291594 158
337097 12511 123
337238 337238 99
337238 1 100
349341 45532 117
349367 45679 123
349393 45787 115
349422 45838 115
349502 45940 92
349531 45976 107
349571 46066 101
349628 46124 118
349654 46156 108
349819 46321 114
350011 46544 110
350040 46602 104
350066 46680 115
350104 46728 122
350133 46767 106
350174 46815 113
350203 46914 113
350229 46953 85
350255 47082 126
350296 47184 113
350325 47262 94
350351 47325 96
350377 47355 113
350403 47397 105
350429 47437 109
350455 47475 112
350481 47628 116
350529 47758 104
350624 47964 101
350650 48006 111
350685 48048 113
350714 48090 110
350758 48141 102
350844 48231 110
350894 48294 116
350977 48432 117
351027 48486 132
351053 48525 111
351082 48729 127
351108 48828 118
351197 48945 117
351223 49080 96
351249 49125 92
351275 49238 110
351335 49338 143
351361 49419 112
351444 49530 122
351473 49737 105
351613 49911 110
462205 462260 87
462260 462309 26
462260 462362 33
462260 1 20
462309 462205 54
462362 462309 25
0 45466 126
0 4785 36
0 1 86
0 149926 49
0 166315 41
0 201286 28
0 12512 68
0 235282 89
0 182382 41
0 462205 30