#gt5.kmer27.(1000000.1050000).V299.E403.mincyc1.e1.0
#construct-flow-graph.py -o graphs-g5-w50000-k27-cyc/ -g 5 -w 50000 -k 27 --mincycles 1 --nreads 5 --readlength 1000 --distribution lognormal11 --pdf
#kmersize=27
#windowsize=50000
#acyclic=False
#mincycles=1
#distribution=lognormal11
#ngenomes=5
#nreads=5
#readlength=1000
#outdir=graphs-g5-w50000-k27-cyc/
#pdf=True
#erroreps=1.0
#unique source is 0, unique sink is 1
#genomes: GCA_000005845.2_ASM584v2.fna GCA_000006665.1_ASM666v1.fna GCA_000007445.1_ASM744v1.fna GCA_000008865.2_ASM886v2.fna GCA_000009565.2_ASM956v1.fna 
# ground truth paths, in the format 'weight node1 node2 node3 ... '
#T 67 0 2 442 469 1848 1875 3531 3558 4688 4985 5012 5015 5042 5129 5174 5183 5222 5270 5318 5327 5386 5501 5549 5593 5663 5764 5791 5895 5948 6037 9166 9193 12434 12461 14151 14178 15374 15401 15749 15776 17467 17494 17810 17837 17901 17928 19669 19696 28164 28191 28211 28238 30542 30595 31344 31371 38354 38381 41473 41513 41548 41584 42584 42611 43058 43109 43331 43358 43694 43721 43793 43820 43850 43877 43964 44015 44027 44054 44191 44218 44298 44325 44361 44388 44493 44520 44556 44583 44747 44774 44893 49976 1 
#T 29 0 51633 51634 62159 62189 63375 63402 64839 64866 66873 66900 66982 67008 69295 69322 69559 69586 69790 69817 69898 69925 69944 69979 78827 78854 84167 84194 84268 84295 85000 85026 89406 89433 91821 91848 93643 93670 97780 97811 99951 1 
#T 7 0 143991 143992 143991 143992 145808 145810 145857 145884 145890 145941 145974 146001 146027 146088 146107 146134 146148 146175 146177 146204 146223 146310 146334 146535 146553 146583 146610 146616 146643 146754 146774 146805 146924 146951 146969 147053 147074 147101 147118 147152 147158 147185 147245 147272 147311 147416 147488 147539 147575 147641 147643 147670 147686 147827 147864 147891 147900 147927 147928 147978 147987 148038 148050 148122 148125 148155 148203 148249 148289 148404 148431 148439 4688 4985 148583 5012 5015 148609 5042 5129 148653 5174 5183 148691 5222 5270 148738 5318 5327 148796 5386 5501 148843 5549 5593 148912 5663 5764 148938 5791 5895 148990 5948 6037 1 
#T 15 0 51634 62159 149036 62189 63375 149062 63402 64839 149088 64866 66873 149114 66900 66982 149138 67008 69295 149164 69322 69559 149190 69586 69790 149216 69817 69898 149242 69925 69944 149276 69979 78827 149302 78854 84167 149328 84194 84268 149354 84295 85000 149378 85026 89406 149404 89433 91821 149430 91848 93643 149456 93670 97780 149486 97811 99951 151145 1 
#T 50 0 145808 145810 151191 145857 151217 145884 145890 151267 145941 145974 151293 146001 146027 151353 146088 146107 151379 146134 146148 151405 146175 146177 151431 146204 146223 151517 146310 146334 151717 146535 146553 151746 146583 151772 146610 146616 151798 146643 151908 146754 146774 151938 146805 146924 151964 146951 146969 152047 147053 147074 152073 147101 147118 152106 147152 147158 152132 147185 147245 152158 147272 147311 152262 147416 147488 152312 147539 147575 152377 147641 147643 152403 147670 147686 152543 147827 147864 152569 147891 147900 152595 147927 147928 152644 147978 147987 152694 148038 148050 152765 148122 148125 152794 148155 152841 148203 148249 152880 148289 148404 152906 148431 148439 2 442 155383 469 1848 155409 1875 3531 155435 3558 4688 4985 5012 5015 5042 5129 5174 5183 5222 5270 5318 5327 5386 5501 5549 5593 5663 5764 5791 5895 5948 6037 9166 155461 9193 12434 155487 12461 14151 155513 14178 15374 155539 15401 15749 155565 15776 17467 155591 17494 17810 155617 17837 17901 155643 17928 19669 155669 19696 28164 155695 28191 28211 155721 28238 30542 155773 30595 31344 155799 31371 38354 155825 38381 41473 155864 41513 41548 155899 41584 42584 155925 42611 43058 155975 43109 43331 156001 43358 43694 156027 43721 43793 156053 43820 43850 156079 43877 43964 156129 44015 44027 156155 44054 44191 156181 44218 44298 156207 44325 44361 156233 44388 44493 156259 44520 44556 156285 44583 44747 156311 44774 44893 1 
# subpath constraints, in the format 'node1 node2 node3 ... '
# 0 subpath constraints for genome
#S 4688 4985 5012 5015 5042 5129 5174 5183 5222 5270 5318 5327 5386 5501 5549 5593 5663 5764 
#S 15776 17467 
#S 19696 28164 
#S 44893 49976 
#S 31371 38354 
# 1 subpath constraints for genome
#S 69979 78827 
#S 97811 99951 
#S 85026 89406 
#S 85026 89406 
#S 85026 89406 89433 91821 
# 2 subpath constraints for genome
#S 0 143991 
#S 0 143991 
#S 0 143991 
#S 0 143991 
#S 0 143991 
# 3 subpath constraints for genome
#S 51634 62159 
#S 69979 78827 
#S 69979 78827 
#S 97811 99951 
#S 51634 62159 
# 4 subpath constraints for genome
#S 19696 28164 
#S 19696 28164 
#S 19696 28164 
#S 148439 2 442 155383 469 1848 
#S 1875 3531 155435 3558 4688 
403
2 442 104
442 469 70
442 155383 51
469 1848 132
1848 1875 59
1848 155409 45
1875 3531 114
3531 3558 58
3531 155435 52
3558 4688 112
4688 4985 127
4985 5012 108
4985 148583 6
5012 5015 119
5015 5042 121
5015 148609 8
5042 5129 119
5129 5174 136
5129 148653 10
5174 5183 138
5183 5222 115
5183 148691 6
5222 5270 110
5270 5318 103
5270 148738 8
5318 5327 108
5327 5386 107
5327 148796 8
5386 5501 136
5501 5549 110
5501 148843 5
5549 5593 101
5593 5663 109
5593 148912 12
5663 5764 104
5764 5791 114
5764 148938 4
5791 5895 111
5895 5948 116
5895 148990 8
5948 6037 122
6037 9166 115
6037 1 6
9166 9193 73
9166 155461 31
9193 12434 121
12434 12461 58
12434 155487 45
12461 14151 114
14151 14178 56
14151 155513 53
14178 15374 112
15374 15401 61
15374 155539 51
15401 15749 122
15749 15776 75
15749 155565 58
15776 17467 116
17467 17494 65
17467 155591 47
17494 17810 124
17810 17837 60
17810 155617 61
17837 17901 128
17901 17928 66
17901 155643 61
17928 19669 114
19669 19696 62
19669 155669 58
19696 28164 115
28164 28191 74
28164 155695 50
28191 28211 120
28211 28238 64
28211 155721 53
28238 30542 99
30542 30595 64
30542 155773 43
30595 31344 131
31344 31371 68
31344 155799 43
31371 38354 92
38354 38381 70
38354 155825 50
38381 41473 103
41473 41513 51
41473 155864 50
41513 41548 134
41548 41584 65
41548 155899 46
41584 42584 113
42584 42611 77
42584 155925 41
42611 43058 125
43058 43109 78
43058 155975 46
43109 43331 130
43331 43358 64
43331 156001 61
43358 43694 109
43694 43721 63
43694 156027 54
43721 43793 135
43793 43820 59
43793 156053 53
43820 43850 145
43850 43877 78
43850 156079 50
43877 43964 121
43964 44015 76
43964 156129 44
44015 44027 111
44027 44054 71
44027 156155 59
44054 44191 117
44191 44218 60
44191 156181 56
44218 44298 97
44298 44325 51
44298 156207 41
44325 44361 99
44361 44388 71
44361 156233 58
44388 44493 112
44493 44520 61
44493 156259 46
44520 44556 130
44556 44583 67
44556 156285 58
44583 44747 131
44747 44774 65
44747 156311 43
44774 44893 100
44893 1 56
44893 49976 68
49976 1 79
51633 51634 28
51634 62159 37
62159 62189 28
62159 149036 9
62189 63375 52
63375 63402 28
63375 149062 8
63402 64839 46
64839 64866 25
64839 149088 11
64866 66873 45
66873 66900 28
66873 149114 18
66900 66982 50
66982 67008 26
66982 149138 18
67008 69295 46
69295 69322 33
69295 149164 14
69322 69559 36
69559 69586 31
69559 149190 15
69586 69790 53
69790 69817 27
69790 149216 6
69817 69898 50
69898 69925 29
69898 149242 14
69925 69944 49
69944 69979 31
69944 149276 20
69979 78827 52
78827 78854 28
78827 149302 13
78854 84167 49
84167 84194 32
84167 149328 11
84194 84268 41
84268 84295 30
84268 149354 11
84295 85000 40
85000 85026 29
85000 149378 15
85026 89406 36
89406 89433 36
89406 149404 17
89433 91821 44
91821 91848 30
91821 149430 12
91848 93643 53
93643 93670 22
93643 149456 9
93670 97780 42
97780 97811 27
97780 149486 11
97811 99951 42
99951 1 18
99951 151145 19
143991 143992 13
143992 143991 2
143992 145808 8
145808 145810 55
145810 145857 9
145810 151191 54
145857 145884 5
145857 151217 52
145884 145890 45
145890 145941 8
145890 151267 61
145941 145974 56
145974 146001 6
145974 151293 43
146001 146027 54
146027 146088 7
146027 151353 50
146088 146107 58
146107 146134 7
146107 151379 39
146134 146148 71
146148 146175 3
146148 151405 43
146175 146177 53
146177 146204 5
146177 151431 52
146204 146223 53
146223 146310 7
146223 151517 40
146310 146334 57
146334 146535 6
146334 151717 50
146535 146553 57
146553 146583 10
146553 151746 44
146583 146610 4
146583 151772 44
146610 146616 68
146616 146643 6
146616 151798 62
146643 146754 6
146643 151908 66
146754 146774 53
146774 146805 6
146774 151938 42
146805 146924 56
146924 146951 7
146924 151964 49
146951 146969 60
146969 147053 14
146969 152047 46
147053 147074 47
147074 147101 5
147074 152073 49
147101 147118 43
147118 147152 8
147118 152106 52
147152 147158 50
147158 147185 12
147158 152132 39
147185 147245 68
147245 147272 8
147245 152158 55
147272 147311 52
147311 147416 12
147311 152262 55
147416 147488 53
147488 147539 6
147488 152312 32
147539 147575 58
147575 147641 3
147575 152377 58
147641 147643 61
147643 147670 5
147643 152403 46
147670 147686 57
147686 147827 7
147686 152543 53
147827 147864 45
147864 147891 5
147864 152569 49
147891 147900 52
147900 147927 4
147900 152595 37
147927 147928 57
147928 147978 5
147928 152644 53
147978 147987 70
147987 148038 8
147987 152694 57
148038 148050 51
148050 148122 12
148050 152765 49
148122 148125 49
148125 148155 3
148125 152794 55
148155 148203 6
148155 152841 53
148203 148249 61
148249 148289 6
148249 152880 56
148289 148404 63
148404 148431 5
148404 152906 51
148431 148439 45
148439 4688 6
148439 2 41
148583 5012 5
148609 5042 14
148653 5174 6
148691 5222 9
148738 5318 6
148796 5386 4
148843 5549 12
148912 5663 6
148938 5791 6
148990 5948 5
149036 62189 22
149062 63402 13
149088 64866 13
149114 66900 10
149138 67008 11
149164 69322 12
149190 69586 20
149216 69817 18
149242 69925 9
149276 69979 12
149302 78854 18
149328 84194 15
149354 84295 15
149378 85026 21
149404 89433 13
149430 91848 22
149456 93670 13
149486 97811 22
151145 1 13
151191 145857 58
151217 145884 43
151267 145941 46
151293 146001 42
151353 146088 61
151379 146134 45
151405 146175 45
151431 146204 61
151517 146310 41
151717 146535 51
151746 146583 51
151772 146610 47
151798 146643 42
151908 146754 49
151938 146805 46
151964 146951 44
152047 147053 45
152073 147101 42
152106 147152 49
152132 147185 38
152158 147272 57
152262 147416 47
152312 147539 43
152377 147641 46
152403 147670 46
152543 147827 45
152569 147891 48
152595 147927 40
152644 147978 48
152694 148038 56
152765 148122 59
152794 148155 50
152841 148203 62
152880 148289 48
152906 148431 46
155383 469 45
155409 1875 58
155435 3558 51
155461 9193 43
155487 12461 47
155513 14178 51
155539 15401 34
155565 15776 50
155591 17494 55
155617 17837 54
155643 17928 64
155669 19696 55
155695 28191 35
155721 28238 45
155773 30595 60
155799 31371 43
155825 38381 53
155864 41513 46
155899 41584 62
155925 42611 44
155975 43109 54
156001 43358 59
156027 43721 37
156053 43820 53
156079 43877 56
156129 44015 46
156155 44054 45
156181 44218 44
156207 44325 43
156233 44388 45
156259 44520 52
156285 44583 55
156311 44774 61
0 2 60
0 51634 14
0 145808 56
0 51633 32
0 143991 11