#gt5.kmer27.(4550000.4600000).V32.E48.mincyc22.e1.0
#construct-flow-graph.py -o graphs-g5-w50000-k27-cyc/ -g 5 -w 50000 -k 27 --mincycles 1 --nreads 5 --readlength 1000 --distribution lognormal11 --pdf
#kmersize=27
#windowsize=50000
#acyclic=False
#mincycles=1
#distribution=lognormal11
#ngenomes=5
#nreads=5
#readlength=1000
#outdir=graphs-g5-w50000-k27-cyc/
#pdf=True
#erroreps=1.0
#unique source is 0, unique sink is 1
#genomes: GCA_000005845.2_ASM584v2.fna GCA_000006665.1_ASM666v1.fna GCA_000007445.1_ASM744v1.fna GCA_000008865.2_ASM886v2.fna GCA_000009565.2_ASM956v1.fna 
# ground truth paths, in the format 'weight node1 node2 node3 ... '
#T 35 0 4511 4516 1 
#T 47 0 54248 54252 54318 54319 61979 75371 75722 75749 75773 75782 75371 75722 77149 75749 75773 75782 75773 61979 89293 89298 89353 89362 89389 89391 89434 89461 89497 89293 89298 89601 89353 89362 89627 89389 89391 89648 89434 89674 89461 89497 1 
#T 13 0 102742 4511 4516 54248 54252 128528 54318 54319 1 
#T 26 0 188941 189062 188941 189062 188941 189062 1 
#T 17 0 1 
# subpath constraints, in the format 'node1 node2 node3 ... '
# 0 subpath constraints for genome
#S 4516 1 
#S 4516 1 
#S 4516 1 
#S 4516 1 
#S 0 4511 
# 1 subpath constraints for genome
#S 0 54248 
#S 54319 61979 
#S 61979 89293 
#S 89497 1 
#S 0 54248 54252 54318 54319 61979 
# 2 subpath constraints for genome
#S 0 102742 
#S 54319 1 
#S 4516 54248 
#S 4516 54248 
#S 54319 1 
# 3 subpath constraints for genome
#S 0 188941 
#S 0 188941 
#S 0 188941 
#S 0 188941 
#S 189062 1 
# 4 subpath constraints for genome
#S 0 1 
#S 0 1 
#S 0 1 
#S 0 1 
#S 0 1 
48
4511 4516 42
4516 1 37
4516 54248 14
54248 54252 67
54252 54318 35
54252 128528 12
54318 54319 64
54319 61979 51
54319 1 22
61979 75371 45
61979 89293 55
75371 75722 83
75722 75749 41
75722 77149 46
75749 75773 88
75773 75782 102
75773 61979 54
75782 75371 47
75782 75773 42
77149 75749 45
89293 89298 93
89298 89353 40
89298 89601 55
89353 89362 94
89362 89389 48
89362 89627 43
89389 89391 87
89391 89434 42
89391 89648 48
89434 89461 47
89434 89674 56
89461 89497 78
89497 89293 56
89497 1 44
89601 89353 54
89627 89389 51
89648 89434 49
89674 89461 33
102742 4511 13
128528 54318 4
188941 189062 88
189062 188941 56
189062 1 28
0 4511 34
0 54248 43
0 102742 11
0 188941 22
0 1 29