#gt5.kmer27.(1800000.1850000).V42.E60.mincyc100.e1.0
#construct-flow-graph.py -o graphs-g5-w50000-k27-cyc/ -g 5 -w 50000 -k 27 --mincycles 1 --nreads 5 --readlength 1000 --distribution lognormal11 --pdf
#kmersize=27
#windowsize=50000
#acyclic=False
#mincycles=1
#distribution=lognormal11
#ngenomes=5
#nreads=5
#readlength=1000
#outdir=graphs-g5-w50000-k27-cyc/
#pdf=True
#erroreps=1.0
#unique source is 0, unique sink is 1
#genomes: GCA_000005845.2_ASM584v2.fna GCA_000006665.1_ASM666v1.fna GCA_000007445.1_ASM744v1.fna GCA_000008865.2_ASM886v2.fna GCA_000009565.2_ASM956v1.fna 
# ground truth paths, in the format 'weight node1 node2 node3 ... '
#T 31 0 1 
#T 32 0 56372 56402 56429 56468 56514 56558 56613 56658 56685 56694 56712 56739 56752 56865 56372 56402 56933 56429 56468 56978 56514 56558 57025 56613 56658 57051 56685 56694 56712 57057 56739 56752 57120 56865 56372 56402 56933 56429 56468 56978 56514 56558 57025 56613 56658 57051 56685 56694 57057 56739 56752 57120 73202 73223 73250 73261 73354 73375 73202 73223 73405 73250 73261 73497 73354 73375 73503 73564 73503 73564 98541 98543 1 
#T 20 0 149167 1 
#T 69 0 149756 149764 149833 149844 149756 149764 153896 149833 149844 98541 98543 199118 1 
#T 68 0 249093 1 
# subpath constraints, in the format 'node1 node2 node3 ... '
# 0 subpath constraints for genome
#S 0 1 
#S 0 1 
#S 0 1 
#S 0 1 
#S 0 1 
# 1 subpath constraints for genome
#S 0 56372 
#S 73564 98541 
#S 73564 98541 
#S 57120 73202 73223 73250 73261 73354 73375 73202 73223 73405 73250 73261 73497 73354 73375 73503 73564 73503 73564 98541 
#S 73564 98541 
# 2 subpath constraints for genome
#S 0 149167 
#S 0 149167 
#S 0 149167 
#S 0 149167 
#S 0 149167 
# 3 subpath constraints for genome
#S 98543 199118 
#S 98543 199118 
#S 149844 98541 
#S 98543 199118 
#S 98543 199118 
# 4 subpath constraints for genome
#S 0 249093 
#S 0 249093 
#S 0 249093 
#S 0 249093 
#S 0 249093 
60
56372 56402 84
56402 56429 38
56402 56933 48
56429 56468 92
56468 56514 37
56468 56978 70
56514 56558 91
56558 56613 32
56558 57025 58
56613 56658 96
56658 56685 25
56658 57051 62
56685 56694 92
56694 56712 69
56694 57057 28
56712 56739 23
56712 57057 40
56739 56752 96
56752 56865 31
56752 57120 63
56865 56372 74
56933 56429 69
56978 56514 63
57025 56613 58
57051 56685 75
57057 56739 60
57120 56865 32
57120 73202 32
73202 73223 62
73223 73250 28
73223 73405 33
73250 73261 70
73261 73354 33
73261 73497 23
73354 73375 61
73375 73202 35
73375 73503 30
73405 73250 35
73497 73354 30
73503 73564 68
73564 73503 18
73564 98541 45
98541 98543 106
98543 1 27
98543 199118 68
149167 1 16
149756 149764 136
149764 149833 67
149764 153896 62
149833 149844 125
149844 149756 61
149844 98541 77
153896 149833 86
199118 1 80
249093 1 50
0 1 36
0 56372 33
0 149167 19
0 149756 65
0 249093 73