#gt5.kmer27.(1500000.1550000).V135.E183.mincyc21.e1.0
#construct-flow-graph.py -o graphs-g5-w50000-k27-cyc/ -g 5 -w 50000 -k 27 --mincycles 1 --nreads 5 --readlength 1000 --distribution lognormal11 --pdf
#kmersize=27
#windowsize=50000
#acyclic=False
#mincycles=1
#distribution=lognormal11
#ngenomes=5
#nreads=5
#readlength=1000
#outdir=graphs-g5-w50000-k27-cyc/
#pdf=True
#erroreps=1.0
#unique source is 0, unique sink is 1
#genomes: GCA_000005845.2_ASM584v2.fna GCA_000006665.1_ASM666v1.fna GCA_000007445.1_ASM744v1.fna GCA_000008865.2_ASM886v2.fna GCA_000009565.2_ASM956v1.fna 
# ground truth paths, in the format 'weight node1 node2 node3 ... '
#T 140 0 44326 44327 44498 44525 45165 45192 45332 45378 46208 46229 46237 46284 46314 46359 46386 46460 46517 46563 46593 46620 46656 46683 46743 46811 46842 46869 46879 46906 46965 46995 47061 47088 47112 47139 47263 47316 47435 47462 47579 47606 47654 47681 47687 47714 47777 47804 47906 47933 48053 48086 48131 48182 48194 48221 48284 48311 48335 48426 48623 48650 48665 48692 48735 48776 49010 49037 49166 49193 49253 49325 49352 49398 49454 49538 49886 49913 49976 1 
#T 14 0 65647 65661 65686 65713 65726 65769 65880 66241 66268 66529 66556 66931 65661 65686 75113 65713 65726 75155 65769 65880 65647 65661 65686 65713 65726 65769 65880 66241 88392 66268 66529 88418 66556 66931 1 
#T 22 0 130955 131017 130955 131017 1 
#T 30 0 1 
#T 142 0 44327 44498 198479 44525 45165 198505 45192 45332 198550 45378 46208 198569 46229 46237 198615 46284 46314 198659 46359 46386 198732 46460 46517 198777 46563 46593 198803 46620 46656 198829 46683 46743 198896 46811 46842 198922 46869 46879 198948 46906 46965 198977 46995 47061 199003 47088 47112 199029 47139 47263 199081 47316 47435 199107 47462 47579 199133 47606 47654 199159 47681 47687 199185 47714 47777 199211 47804 47906 199237 47933 48053 199269 48086 48131 199319 48182 48194 199345 48221 48284 199371 48311 48335 199461 48426 48623 199487 48650 48665 199513 48692 48735 199553 48776 49010 199579 49037 49166 199605 49193 49253 199676 49325 49352 199721 49398 49454 199804 49538 49886 199830 49913 49976 244156 1 
# subpath constraints, in the format 'node1 node2 node3 ... '
# 0 subpath constraints for genome
#S 0 44326 
#S 0 44326 
#S 0 44326 
#S 0 44326 44327 44498 44525 45165 
#S 0 44326 
# 1 subpath constraints for genome
#S 0 65647 65661 65686 65713 65726 65769 65880 66241 
#S 0 65647 
#S 0 65647 
#S 0 65647 
#S 66931 1 
# 2 subpath constraints for genome
#S 0 130955 
#S 0 130955 
#S 0 130955 
#S 131017 1 
#S 0 130955 
# 3 subpath constraints for genome
#S 0 1 
#S 0 1 
#S 0 1 
#S 0 1 
#S 0 1 
# 4 subpath constraints for genome
#S 49976 244156 
#S 49976 244156 
#S 49976 244156 
#S 49976 244156 
#S 49976 244156 
183
44326 44327 135
44327 44498 271
44498 44525 124
44498 198479 152
44525 45165 287
45165 45192 127
45165 198505 143
45192 45332 296
45332 45378 122
45332 198550 165
45378 46208 288
46208 46229 158
46208 198569 140
46229 46237 263
46237 46284 117
46237 198615 153
46284 46314 251
46314 46359 129
46314 198659 137
46359 46386 275
46386 46460 134
46386 198732 143
46460 46517 302
46517 46563 134
46517 198777 138
46563 46593 283
46593 46620 141
46593 198803 158
46620 46656 264
46656 46683 126
46656 198829 135
46683 46743 293
46743 46811 132
46743 198896 147
46811 46842 299
46842 46869 140
46842 198922 140
46869 46879 270
46879 46906 159
46879 198948 146
46906 46965 243
46965 46995 138
46965 198977 114
46995 47061 259
47061 47088 149
47061 199003 150
47088 47112 292
47112 47139 145
47112 199029 137
47139 47263 303
47263 47316 141
47263 199081 153
47316 47435 271
47435 47462 143
47435 199107 140
47462 47579 285
47579 47606 116
47579 199133 134
47606 47654 286
47654 47681 124
47654 199159 140
47681 47687 281
47687 47714 157
47687 199185 176
47714 47777 295
47777 47804 153
47777 199211 159
47804 47906 304
47906 47933 129
47906 199237 145
47933 48053 323
48053 48086 154
48053 199269 131
48086 48131 276
48131 48182 136
48131 199319 146
48182 48194 262
48194 48221 109
48194 199345 133
48221 48284 290
48284 48311 117
48284 199371 153
48311 48335 282
48335 48426 146
48335 199461 163
48426 48623 307
48623 48650 144
48623 199487 152
48650 48665 302
48665 48692 130
48665 199513 159
48692 48735 288
48735 48776 157
48735 199553 150
48776 49010 291
49010 49037 138
49010 199579 145
49037 49166 240
49166 49193 138
49166 199605 142
49193 49253 283
49253 49325 139
49253 199676 156
49325 49352 284
49352 49398 151
49352 199721 135
49398 49454 290
49454 49538 154
49454 199804 137
49538 49886 275
49886 49913 153
49886 199830 145
49913 49976 250
49976 1 123
49976 244156 127
65647 65661 23
65661 65686 41
65686 65713 28
65686 75113 13
65713 65726 50
65726 65769 24
65726 75155 11
65769 65880 40
65880 66241 30
65880 65647 12
66241 66268 19
66241 88392 19
66268 66529 24
66529 66556 15
66529 88418 11
66556 66931 23
66931 65661 15
66931 1 17
75113 65713 11
75155 65769 15
88392 66268 14
88418 66556 15
130955 131017 44
131017 130955 27
131017 1 30
198479 44525 130
198505 45192 135
198550 45378 139
198569 46229 132
198615 46284 132
198659 46359 135
198732 46460 151
198777 46563 123
198803 46620 141
198829 46683 131
198896 46811 139
198922 46869 135
198948 46906 139
198977 46995 131
199003 47088 122
199029 47139 137
199081 47316 142
199107 47462 147
199133 47606 157
199159 47681 156
199185 47714 137
199211 47804 127
199237 47933 149
199269 48086 123
199319 48182 160
199345 48221 144
199371 48311 132
199461 48426 127
199487 48650 135
199513 48692 146
199553 48776 146
199579 49037 155
199605 49193 164
199676 49325 129
199721 49398 130
199804 49538 126
199830 49913 146
244156 1 139
0 44327 142
0 44326 142
0 65647 14
0 130955 32
0 1 20