#gt5.kmer27.(3050000.3100000).V23.E38.mincyc9.e1.0
#construct-flow-graph.py -o graphs-g5-w50000-k27-cyc/ -g 5 -w 50000 -k 27 --mincycles 1 --nreads 5 --readlength 1000 --distribution lognormal11 --pdf
#kmersize=27
#windowsize=50000
#acyclic=False
#mincycles=1
#distribution=lognormal11
#ngenomes=5
#nreads=5
#readlength=1000
#outdir=graphs-g5-w50000-k27-cyc/
#pdf=True
#erroreps=1.0
#unique source is 0, unique sink is 1
#genomes: GCA_000005845.2_ASM584v2.fna GCA_000006665.1_ASM666v1.fna GCA_000007445.1_ASM744v1.fna GCA_000008865.2_ASM886v2.fna GCA_000009565.2_ASM956v1.fna 
# ground truth paths, in the format 'weight node1 node2 node3 ... '
#T 8 0 20003 20004 20005 20006 20012 32697 20003 20004 20005 1 
#T 206 0 32697 1 
#T 72 0 1 
#T 25 0 149926 149929 149931 149942 149931 149942 149926 149929 173025 173052 173025 173052 1 
#T 4 0 210500 210514 210656 210670 210500 210514 211015 210656 210670 20004 20005 20006 20012 149929 247156 247160 247226 20006 247254 247226 20006 247254 247156 247160 1 
# subpath constraints, in the format 'node1 node2 node3 ... '
# 0 subpath constraints for genome
#S 32697 20003 
#S 32697 20003 
#S 20012 32697 20003 
#S 32697 20003 
#S 32697 20003 
# 1 subpath constraints for genome
#S 0 32697 
#S 32697 1 
#S 0 32697 
#S 32697 1 
#S 32697 1 
# 2 subpath constraints for genome
#S 0 1 
#S 0 1 
#S 0 1 
#S 0 1 
#S 0 1 
# 3 subpath constraints for genome
#S 173052 1 
#S 173052 1 
#S 149942 149926 
#S 149942 149926 
#S 149942 149926 
# 4 subpath constraints for genome
#S 210670 20004 
#S 210670 20004 
#S 20012 149929 
#S 20012 149929 
#S 0 210500 
38
20003 20004 16
20004 20005 17
20005 20006 17
20005 1 6
20006 20012 12
20006 247254 9
20012 32697 8
20012 149929 1
32697 20003 10
32697 1 223
149926 149929 51
149929 149931 28
149929 173025 23
149929 247156 5
149931 149942 60
149942 149931 25
149942 149926 25
173025 173052 48
173052 173025 23
173052 1 31
210500 210514 6
210514 210656 4
210514 211015 3
210656 210670 7
210670 210500 4
210670 20004 1
211015 210656 4
247156 247160 6
247160 247226 3
247160 1 4
247226 20006 5
247254 247156 6
247254 247226 7
0 20003 6
0 32697 203
0 1 73
0 149926 29
0 210500 5