#gt5.kmer27.(2750000.2800000).V80.E112.mincyc100.e1.0
#construct-flow-graph.py -o graphs-g5-w50000-k27-cyc/ -g 5 -w 50000 -k 27 --mincycles 1 --nreads 5 --readlength 1000 --distribution lognormal11 --pdf
#kmersize=27
#windowsize=50000
#acyclic=False
#mincycles=1
#distribution=lognormal11
#ngenomes=5
#nreads=5
#readlength=1000
#outdir=graphs-g5-w50000-k27-cyc/
#pdf=True
#erroreps=1.0
#unique source is 0, unique sink is 1
#genomes: GCA_000005845.2_ASM584v2.fna GCA_000006665.1_ASM666v1.fna GCA_000007445.1_ASM744v1.fna GCA_000008865.2_ASM886v2.fna GCA_000009565.2_ASM956v1.fna 
# ground truth paths, in the format 'weight node1 node2 node3 ... '
#T 132 0 15413 15415 15413 15415 15413 15415 15413 15415 1 
#T 38 0 92951 92993 93150 93163 93221 93230 93299 93305 93332 93380 92951 92993 93715 93150 93163 93772 93221 93230 93840 93299 93305 93866 93332 93380 1 
#T 42 0 148880 148936 148880 148936 1 
#T 150 0 175375 175408 175435 175471 175528 175545 175615 175654 175702 175717 175744 175792 175819 175864 175891 175939 175966 176020 176041 176089 176092 176152 176164 176191 176239 176296 176311 176338 176344 176371 176380 176431 176452 176569 176581 176608 176659 175375 175408 196833 175435 175471 196889 175528 175545 196958 175615 175654 197005 175702 175717 197031 175744 175792 197057 175819 175864 197083 175891 175939 197109 175966 197162 176020 176041 197209 176089 176092 197268 176152 176164 197294 176191 176239 197350 176296 176311 197376 176338 176344 197402 176371 176380 197452 176431 176452 197568 176569 176581 197594 176608 176659 197772 1 
#T 37 0 197772 234862 234917 234919 234959 234862 234917 234959 234862 234917 234919 1 
# subpath constraints, in the format 'node1 node2 node3 ... '
# 0 subpath constraints for genome
#S 0 15413 
#S 15415 1 
#S 15415 1 
#S 15415 1 
#S 0 15413 15415 15413 15415 15413 15415 15413 15415 1 
# 1 subpath constraints for genome
#S 0 92951 
#S 0 92951 
#S 0 92951 
#S 0 92951 
#S 0 92951 
# 2 subpath constraints for genome
#S 0 148880 
#S 0 148880 
#S 0 148880 
#S 0 148880 
#S 0 148880 
# 3 subpath constraints for genome
#S 176659 175375 
#S 0 175375 
#S 0 175375 
#S 176659 175375 
#S 176659 175375 
# 4 subpath constraints for genome
#S 0 197772 
#S 0 197772 
#S 0 197772 
#S 234862 234917 234959 234862 234917 234919 1 
#S 0 197772 
112
15413 15415 539
15415 15413 406
15415 1 144
92951 92993 85
92993 93150 47
92993 93715 39
93150 93163 84
93163 93221 26
93163 93772 23
93221 93230 66
93230 93299 33
93230 93840 27
93299 93305 73
93305 93332 37
93305 93866 30
93332 93380 62
93380 92951 28
93380 1 44
93715 93150 25
93772 93221 36
93840 93299 47
93866 93332 41
148880 148936 72
148936 148880 38
148936 1 38
175375 175408 306
175408 175435 119
175408 196833 146
175435 175471 287
175471 175528 156
175471 196889 165
175528 175545 289
175545 175615 135
175545 196958 174
175615 175654 277
175654 175702 160
175654 197005 147
175702 175717 293
175717 175744 151
175717 197031 139
175744 175792 293
175792 175819 150
175792 197057 144
175819 175864 279
175864 175891 163
175864 197083 170
175891 175939 292
175939 175966 130
175939 197109 152
175966 176020 157
175966 197162 138
176020 176041 313
176041 176089 157
176041 197209 147
176089 176092 315
176092 176152 150
176092 197268 158
176152 176164 284
176164 176191 138
176164 197294 161
176191 176239 296
176239 176296 147
176239 197350 170
176296 176311 296
176311 176338 148
176311 197376 155
176338 176344 294
176344 176371 162
176344 197402 159
176371 176380 322
176380 176431 142
176380 197452 123
176431 176452 317
176452 176569 133
176452 197568 141
176569 176581 314
176581 176608 142
176581 197594 153
176608 176659 314
176659 175375 142
176659 197772 151
196833 175435 173
196889 175528 140
196958 175615 160
197005 175702 152
197031 175744 147
197057 175819 122
197083 175891 148
197109 175966 147
197162 176020 145
197209 176089 136
197268 176152 146
197294 176191 146
197350 176296 158
197376 176338 158
197402 176371 147
197452 176431 143
197568 176569 146
197594 176608 139
197772 1 155
197772 234862 39
234862 234917 108
234917 234919 78
234917 234959 32
234919 234959 35
234919 1 34
234959 234862 55
0 15413 128
0 92951 34
0 148880 45
0 175375 145
0 197772 40