#gt5.kmer27.(2650000.2700000).V40.E63.mincyc41.e1.0
#construct-flow-graph.py -o graphs-g5-w50000-k27-cyc/ -g 5 -w 50000 -k 27 --mincycles 1 --nreads 5 --readlength 1000 --distribution lognormal11 --pdf
#kmersize=27
#windowsize=50000
#acyclic=False
#mincycles=1
#distribution=lognormal11
#ngenomes=5
#nreads=5
#readlength=1000
#outdir=graphs-g5-w50000-k27-cyc/
#pdf=True
#erroreps=1.0
#unique source is 0, unique sink is 1
#genomes: GCA_000005845.2_ASM584v2.fna GCA_000006665.1_ASM666v1.fna GCA_000007445.1_ASM744v1.fna GCA_000008865.2_ASM886v2.fna GCA_000009565.2_ASM956v1.fna 
# ground truth paths, in the format 'weight node1 node2 node3 ... '
#T 8 0 3470 3478 3470 3478 4961 4966 5024 5034 12344 12368 12394 12344 12368 12394 12344 12368 23651 12394 23655 4961 4966 1 
#T 47 0 67956 67987 68014 68051 67956 67987 89101 68014 68051 1 
#T 38 0 1 
#T 56 0 169706 169714 169731 169735 169760 169762 169764 169788 169815 169828 169714 169731 169735 169762 169764 169788 169815 169828 169706 169714 169731 169735 169760 169762 169764 169788 169901 169815 169828 169714 169731 169760 169762 169764 169901 169815 169828 169714 169731 169760 169762 169764 169901 169815 1 
#T 21 0 207033 207036 207041 207094 207102 207136 207148 207175 207223 207033 207036 207041 207094 207102 207339 207136 207148 207359 207175 207041 207094 207102 207359 207175 207223 207036 207041 207094 5024 5034 23651 12394 23655 1 
# subpath constraints, in the format 'node1 node2 node3 ... '
# 0 subpath constraints for genome
#S 23655 4961 
#S 12368 23651 
#S 12368 23651 12394 23655 4961 
#S 0 3470 
#S 5034 12344 
# 1 subpath constraints for genome
#S 0 67956 
#S 0 67956 
#S 0 67956 
#S 68051 67956 
#S 68051 67956 
# 2 subpath constraints for genome
#S 0 1 
#S 0 1 
#S 0 1 
#S 0 1 
#S 0 1 
# 3 subpath constraints for genome
#S 0 169706 
#S 0 169706 
#S 0 169706 
#S 169815 1 
#S 0 169706 
# 4 subpath constraints for genome
#S 207094 5024 
#S 207094 5024 
#S 23655 1 
#S 5034 23651 
#S 5034 23651 12394 23655 1 
63
3470 3478 15
3478 3470 13
3478 4961 3
4961 4966 16
4966 5024 7
4966 1 8
5024 5034 31
5034 12344 3
5034 23651 22
12344 12368 22
12368 12394 15
12368 23651 9
12394 12344 20
12394 23655 30
23651 12394 30
23655 4961 9
23655 1 14
67956 67987 114
67987 68014 45
67987 89101 59
68014 68051 92
68051 67956 50
68051 1 47
89101 68014 56
169706 169714 117
169714 169731 266
169731 169735 154
169731 169760 117
169735 169760 110
169735 169762 51
169760 169762 213
169762 169764 288
169764 169788 156
169764 169901 89
169788 169815 106
169788 169901 63
169815 169828 230
169815 1 49
169828 169714 151
169828 169706 70
169901 169815 169
207033 207036 41
207036 207041 67
207041 207094 76
207094 207102 50
207094 5024 16
207102 207136 17
207102 207339 16
207102 207359 21
207136 207148 40
207148 207175 16
207148 207359 20
207175 207223 52
207175 207041 18
207223 207033 32
207223 207036 17
207339 207136 13
207359 207175 50
0 3470 6
0 67956 53
0 1 39
0 169706 58
0 207033 21