#gt5.kmer27.(1350000.1400000).V220.E297.mincyc2.e1.0
#construct-flow-graph.py -o graphs-g5-w50000-k27-cyc/ -g 5 -w 50000 -k 27 --mincycles 1 --nreads 5 --readlength 1000 --distribution lognormal11 --pdf
#kmersize=27
#windowsize=50000
#acyclic=False
#mincycles=1
#distribution=lognormal11
#ngenomes=5
#nreads=5
#readlength=1000
#outdir=graphs-g5-w50000-k27-cyc/
#pdf=True
#erroreps=1.0
#unique source is 0, unique sink is 1
#genomes: GCA_000005845.2_ASM584v2.fna GCA_000006665.1_ASM666v1.fna GCA_000007445.1_ASM744v1.fna GCA_000008865.2_ASM886v2.fna GCA_000009565.2_ASM956v1.fna 
# ground truth paths, in the format 'weight node1 node2 node3 ... '
#T 18 0 13641 13642 13707 13734 14269 14296 14419 14449 14512 14545 14572 14617 14644 14665 14704 14713 14743 14752 14890 14917 15016 15037 15079 15085 15112 15145 15148 15175 15185 15235 15310 15352 15427 15457 15500 15527 15566 15593 15620 15647 15689 15716 16460 16487 17480 17507 19242 19269 20079 20106 21704 21731 22595 22622 23399 23426 27703 27730 27996 28059 28060 28098 28155 28182 28195 28242 28269 28272 28315 28332 28359 28397 28424 28527 28564 28635 28668 28719 28755 28788 28857 28876 28929 28965 28992 29109 29136 29148 29199 30169 30196 31755 31776 32912 32939 34704 34731 35518 35545 35704 35731 37000 37027 38436 38463 38568 38595 38811 38838 40874 40901 41910 41937 42960 42987 46019 47240 47372 47399 47785 47845 47848 47875 47905 47932 48836 48863 49081 49108 49163 49190 49193 49253 49633 49660 49861 49900 49960 1 
#T 122 0 76358 76360 76427 76429 92262 92278 92262 92278 1 
#T 8 0 127807 127812 127807 127812 1 
#T 50 0 197099 76358 76360 197164 76427 76429 1 
#T 130 0 13642 13707 199898 13734 14269 199924 14296 14419 199953 14449 14512 199985 14545 200011 14572 14617 200037 14644 14665 200075 14704 14713 200104 14743 14752 200241 14890 14917 200339 15016 15037 200380 15079 15085 200406 15112 200438 15145 15148 200464 15175 15185 200513 15235 15310 200554 15352 15427 200583 15457 15500 200609 15527 15566 200635 15593 15620 200661 15647 15689 200687 15716 16460 200713 16487 17480 200739 17507 19242 200765 19269 20079 200791 20106 21704 200817 21731 22595 200843 22622 23399 200869 23426 27703 200895 27730 27996 200957 28059 28060 200994 28098 28155 201020 28182 28195 201066 28242 201092 28269 28272 201134 28315 28332 201160 28359 28397 201186 28424 28527 201222 28564 28635 201254 28668 28719 201289 28755 28788 201357 28857 28876 201409 28929 28965 201435 28992 29109 201461 29136 29148 201511 29199 30169 201537 30196 31755 201558 31776 32912 201584 32939 34704 201610 34731 35518 201636 35545 35704 201662 35731 37000 201688 37027 38436 201714 38463 38568 201740 38595 38811 201766 38838 40874 201792 40901 41910 201818 41937 42960 201844 42987 46019 201865 47240 47372 201891 47399 47785 201950 47845 47848 201976 47875 47905 202002 47932 48836 202028 48863 49081 202054 49108 49163 202080 49190 49193 202139 49253 49633 202165 49660 49861 202203 49900 49960 217057 1 
# subpath constraints, in the format 'node1 node2 node3 ... '
# 0 subpath constraints for genome
#S 34731 35518 35545 35704 35731 37000 
#S 22622 23399 23426 27703 
#S 42987 46019 
#S 23426 27703 
#S 40901 41910 41937 42960 
# 1 subpath constraints for genome
#S 0 76358 
#S 0 76358 
#S 0 76358 
#S 76429 92262 
#S 76429 92262 
# 2 subpath constraints for genome
#S 0 127807 
#S 0 127807 
#S 127812 127807 
#S 127812 127807 
#S 0 127807 
# 3 subpath constraints for genome
#S 0 197099 
#S 0 197099 
#S 0 197099 76358 76360 197164 76427 76429 1 
#S 0 197099 
#S 0 197099 
# 4 subpath constraints for genome
#S 17507 19242 200765 19269 20079 
#S 17507 19242 200765 19269 20079 
#S 49960 217057 
#S 40901 41910 201818 41937 42960 
#S 38838 40874 201792 40901 41910 
297
13641 13642 16
13642 13707 156
13707 13734 15
13707 199898 119
13734 14269 156
14269 14296 20
14269 199924 130
14296 14419 132
14419 14449 19
14419 199953 157
14449 14512 153
14512 14545 20
14512 199985 131
14545 14572 18
14545 200011 128
14572 14617 116
14617 14644 15
14617 200037 123
14644 14665 141
14665 14704 14
14665 200075 130
14704 14713 165
14713 14743 18
14713 200104 144
14743 14752 132
14752 14890 19
14752 200241 138
14890 14917 178
14917 15016 11
14917 200339 136
15016 15037 160
15037 15079 14
15037 200380 117
15079 15085 146
15085 15112 15
15085 200406 136
15112 15145 16
15112 200438 124
15145 15148 153
15148 15175 21
15148 200464 129
15175 15185 156
15185 15235 17
15185 200513 134
15235 15310 130
15310 15352 25
15310 200554 121
15352 15427 138
15427 15457 17
15427 200583 153
15457 15500 149
15500 15527 19
15500 200609 109
15527 15566 160
15566 15593 14
15566 200635 119
15593 15620 153
15620 15647 20
15620 200661 114
15647 15689 148
15689 15716 19
15689 200687 126
15716 16460 153
16460 16487 14
16460 200713 136
16487 17480 148
17480 17507 13
17480 200739 122
17507 19242 141
19242 19269 22
19242 200765 147
19269 20079 150
20079 20106 11
20079 200791 140
20106 21704 126
21704 21731 22
21704 200817 109
21731 22595 144
22595 22622 18
22595 200843 136
22622 23399 161
23399 23426 12
23399 200869 107
23426 27703 163
27703 27730 21
27703 200895 145
27730 27996 162
27996 28059 15
27996 200957 140
28059 28060 152
28060 28098 16
28060 200994 124
28098 28155 132
28155 28182 16
28155 201020 139
28182 28195 148
28195 28242 17
28195 201066 131
28242 28269 9
28242 201092 143
28269 28272 147
28272 28315 14
28272 201134 128
28315 28332 159
28332 28359 16
28332 201160 132
28359 28397 151
28397 28424 20
28397 201186 103
28424 28527 146
28527 28564 20
28527 201222 156
28564 28635 147
28635 28668 15
28635 201254 135
28668 28719 159
28719 28755 10
28719 201289 132
28755 28788 174
28788 28857 21
28788 201357 117
28857 28876 158
28876 28929 17
28876 201409 133
28929 28965 144
28965 28992 20
28965 201435 126
28992 29109 160
29109 29136 20
29109 201461 124
29136 29148 145
29148 29199 9
29148 201511 134
29199 30169 129
30169 30196 21
30169 201537 135
30196 31755 156
31755 31776 18
31755 201558 109
31776 32912 140
32912 32939 18
32912 201584 121
32939 34704 158
34704 34731 16
34704 201610 156
34731 35518 166
35518 35545 16
35518 201636 119
35545 35704 149
35704 35731 20
35704 201662 136
35731 37000 136
37000 37027 25
37000 201688 136
37027 38436 134
38436 38463 21
38436 201714 126
38463 38568 141
38568 38595 15
38568 201740 131
38595 38811 144
38811 38838 18
38811 201766 128
38838 40874 151
40874 40901 18
40874 201792 141
40901 41910 140
41910 41937 24
41910 201818 150
41937 42960 142
42960 42987 19
42960 201844 147
42987 46019 166
46019 47240 18
46019 201865 134
47240 47372 149
47372 47399 13
47372 201891 133
47399 47785 135
47785 47845 16
47785 201950 125
47845 47848 128
47848 47875 16
47848 201976 121
47875 47905 160
47905 47932 15
47905 202002 132
47932 48836 149
48836 48863 18
48836 202028 131
48863 49081 135
49081 49108 17
49081 202054 112
49108 49163 134
49163 49190 8
49163 202080 126
49190 49193 154
49193 49253 18
49193 202139 134
49253 49633 153
49633 49660 17
49633 202165 120
49660 49861 153
49861 49900 15
49861 202203 111
49900 49960 146
49960 1 10
49960 217057 123
76358 76360 161
76360 76427 130
76360 197164 60
76427 76429 177
76429 92262 128
76429 1 54
92262 92278 235
92278 92262 122
92278 1 131
127807 127812 15
127812 127807 13
127812 1 8
197099 76358 46
197164 76427 47
199898 13734 120
199924 14296 121
199953 14449 125
199985 14545 133
200011 14572 118
200037 14644 131
200075 14704 116
200104 14743 129
200241 14890 117
200339 15016 113
200380 15079 125
200406 15112 135
200438 15145 122
200464 15175 128
200513 15235 150
200554 15352 146
200583 15457 123
200609 15527 139
200635 15593 125
200661 15647 138
200687 15716 139
200713 16487 133
200739 17507 133
200765 19269 116
200791 20106 132
200817 21731 130
200843 22622 129
200869 23426 134
200895 27730 125
200957 28059 121
200994 28098 156
201020 28182 123
201066 28242 130
201092 28269 153
201134 28315 136
201160 28359 130
201186 28424 133
201222 28564 122
201254 28668 139
201289 28755 129
201357 28857 136
201409 28929 145
201435 28992 157
201461 29136 117
201511 29199 145
201537 30196 112
201558 31776 131
201584 32939 124
201610 34731 131
201636 35545 133
201662 35731 139
201688 37027 140
201714 38463 126
201740 38595 136
201766 38838 137
201792 40901 129
201818 41937 120
201844 42987 126
201865 47240 160
201891 47399 140
201950 47845 128
201976 47875 142
202002 47932 134
202028 48863 142
202054 49108 131
202080 49190 132
202139 49253 118
202165 49660 127
202203 49900 138
217057 1 137
0 13642 113
0 13641 24
0 76358 104
0 127807 7
0 197099 49