#gt5.kmer27.(1450000.1500000).V26.E39.mincyc19.e1.0
#construct-flow-graph.py -o graphs-g5-w50000-k27-cyc/ -g 5 -w 50000 -k 27 --mincycles 1 --nreads 5 --readlength 1000 --distribution lognormal11 --pdf
#kmersize=27
#windowsize=50000
#acyclic=False
#mincycles=1
#distribution=lognormal11
#ngenomes=5
#nreads=5
#readlength=1000
#outdir=graphs-g5-w50000-k27-cyc/
#pdf=True
#erroreps=1.0
#unique source is 0, unique sink is 1
#genomes: GCA_000005845.2_ASM584v2.fna GCA_000006665.1_ASM666v1.fna GCA_000007445.1_ASM744v1.fna GCA_000008865.2_ASM886v2.fna GCA_000009565.2_ASM956v1.fna 
# ground truth paths, in the format 'weight node1 node2 node3 ... '
#T 21 0 16104 16113 16143 16146 16176 16212 16233 16282 16287 16347 16392 16104 16113 16146 16176 16464 16212 16233 16474 16347 16392 16143 16146 16176 16464 16212 16233 16474 16282 16287 20255 20276 45730 48691 48718 49760 1 
#T 42 0 20255 20276 83479 83500 83479 83500 1 
#T 13 0 1 
#T 35 0 199641 1 
#T 23 0 45730 48691 199667 48718 49760 245611 1 
# subpath constraints, in the format 'node1 node2 node3 ... '
# 0 subpath constraints for genome
#S 20276 45730 
#S 0 16104 
#S 0 16104 
#S 48718 49760 
#S 45730 48691 
# 1 subpath constraints for genome
#S 0 20255 
#S 0 20255 
#S 0 20255 
#S 0 20255 
#S 0 20255 
# 2 subpath constraints for genome
#S 0 1 
#S 0 1 
#S 0 1 
#S 0 1 
#S 0 1 
# 3 subpath constraints for genome
#S 0 199641 
#S 0 199641 
#S 0 199641 
#S 0 199641 
#S 0 199641 
# 4 subpath constraints for genome
#S 49760 245611 
#S 45730 48691 
#S 49760 245611 
#S 49760 245611 
#S 49760 245611 
39
16104 16113 47
16113 16143 14
16113 16146 22
16143 16146 44
16146 16176 61
16176 16212 23
16176 16464 37
16212 16233 71
16233 16282 23
16233 16474 49
16282 16287 46
16287 16347 21
16287 20255 19
16347 16392 34
16392 16104 18
16392 16143 24
16464 16212 45
16474 16347 20
16474 16282 22
20255 20276 48
20276 45730 16
20276 83479 49
45730 48691 52
48691 48718 17
48691 199667 31
48718 49760 35
49760 1 22
49760 245611 25
83479 83500 75
83500 83479 42
83500 1 27
199641 1 34
199667 48718 27
245611 1 26
0 45730 16
0 16104 17
0 20255 44
0 1 8
0 199641 34