#gt5.kmer27.(2700000.2750000).V131.E195.mincyc100.e1.0
#construct-flow-graph.py -o graphs-g5-w50000-k27-cyc/ -g 5 -w 50000 -k 27 --mincycles 1 --nreads 5 --readlength 1000 --distribution lognormal11 --pdf
#kmersize=27
#windowsize=50000
#acyclic=False
#mincycles=1
#distribution=lognormal11
#ngenomes=5
#nreads=5
#readlength=1000
#outdir=graphs-g5-w50000-k27-cyc/
#pdf=True
#erroreps=1.0
#unique source is 0, unique sink is 1
#genomes: GCA_000005845.2_ASM584v2.fna GCA_000006665.1_ASM666v1.fna GCA_000007445.1_ASM744v1.fna GCA_000008865.2_ASM886v2.fna GCA_000009565.2_ASM956v1.fna 
# ground truth paths, in the format 'weight node1 node2 node3 ... '
#T 54 0 1 
#T 34 0 58457 58465 58501 58516 58543 58609 58636 58693 58730 58753 58869 58907 58950 58981 59015 59022 59062 59076 59115 59223 59226 59283 59298 59325 59395 59431 59455 59526 59545 59606 59614 59671 59674 59701 59726 59792 59856 59883 60099 60191 60234 60370 60373 58457 58465 60449 58501 58516 60475 58543 58609 60501 58636 58693 60537 58730 58753 60652 58869 58907 60694 58950 58981 60727 59015 59022 60766 59062 59076 60804 59115 60911 59223 59226 60967 59283 59298 60993 59325 59395 61028 59431 59455 61098 59526 59545 61158 59606 59614 61214 59671 59674 61240 59701 59726 61305 59792 59856 61331 59883 60099 61422 60191 60234 61556 60370 60373 65405 65451 65405 65451 92379 92384 94217 94225 94229 94256 94271 94275 94299 94302 94317 94326 94225 94229 94370 94378 94397 94271 94275 94302 94317 94326 94225 94229 94459 94397 94271 94275 94302 94317 94326 94217 94225 94229 94370 94378 94256 94271 94275 94299 94326 94225 94229 94370 94378 94317 94326 94225 94229 94370 94459 94397 94271 94275 94302 94317 94326 1 
#T 38 0 111259 111282 111284 111317 111344 111348 111259 111282 111317 111409 111344 111348 111284 147531 147537 147531 147537 147531 147537 1 
#T 5 0 92379 92384 161869 161889 161947 161948 165405 165447 165614 165617 165675 165684 165753 165759 165786 165834 165405 165447 166180 165614 165617 166237 165675 165684 166305 165753 165759 166331 165786 165834 161889 161947 161869 161889 161947 161948 1 
#T 23 0 216024 216025 216026 216028 216029 216030 216146 216025 216026 216028 216147 216148 216202 216203 216025 216026 216028 216029 216030 216024 216025 216026 216028 216147 216148 216026 216024 216025 216026 216028 216029 234629 216025 216026 216028 216029 234631 234629 216025 216026 216028 234685 234686 216203 216025 216026 216028 216147 216202 216203 216025 216026 216028 216029 234848 216024 216025 216026 216028 234685 234848 216024 216025 216026 216028 216029 234631 234955 234629 216025 216026 216028 216147 235070 216146 216025 216026 216028 216147 216148 235072 235070 216146 216025 216026 216028 234685 234686 235177 216203 216025 216026 216028 216147 216148 235072 216146 216025 216026 216028 234685 1 
# subpath constraints, in the format 'node1 node2 node3 ... '
# 0 subpath constraints for genome
#S 0 1 
#S 0 1 
#S 0 1 
#S 0 1 
#S 0 1 
# 1 subpath constraints for genome
#S 65451 92379 
#S 59325 59395 59431 59455 59526 59545 59606 59614 59671 59674 59701 59726 59792 59856 59883 60099 60191 60234 60370 60373 58457 
#S 0 58457 
#S 65451 92379 
#S 59606 59614 61214 59671 59674 61240 59701 59726 61305 59792 59856 61331 59883 60099 61422 60191 60234 61556 60370 60373 65405 
# 2 subpath constraints for genome
#S 147537 1 
#S 111284 147531 
#S 111284 147531 
#S 111284 147531 
#S 111284 147531 
# 3 subpath constraints for genome
#S 165834 161889 
#S 165834 161889 
#S 0 92379 
#S 0 92379 
#S 161948 165405 
# 4 subpath constraints for genome
#S 234685 1 
#S 216148 216026 216024 216025 216026 216028 216029 234629 216025 216026 216028 216029 234631 234629 216025 216026 216028 234685 234686 216203 216025 216026 216028 216147 216202 216203 216025 216026 216028 216029 234848 216024 216025 216026 216028 234685 234848 216024 216025 216026 216028 216029 234631 234955 234629 216025 216026 216028 216147 235070 216146 216025 216026 216028 216147 216148 235072 235070 216146 216025 216026 216028 234685 234686 235177 216203 216025 216026 216028 216147 216148 235072 216146 216025 216026 216028 234685 1 
#S 216148 216026 
#S 216148 216026 
#S 0 216024 
195
58457 58465 67
58465 58501 20
58465 60449 39
58501 58516 71
58516 58543 39
58516 60475 38
58543 58609 61
58609 58636 40
58609 60501 43
58636 58693 67
58693 58730 36
58693 60537 45
58730 58753 61
58753 58869 30
58753 60652 32
58869 58907 69
58907 58950 28
58907 60694 35
58950 58981 49
58981 59015 38
58981 60727 42
59015 59022 63
59022 59062 40
59022 60766 35
59062 59076 70
59076 59115 36
59076 60804 29
59115 59223 36
59115 60911 35
59223 59226 72
59226 59283 33
59226 60967 31
59283 59298 74
59298 59325 42
59298 60993 31
59325 59395 72
59395 59431 33
59395 61028 30
59431 59455 58
59455 59526 30
59455 61098 35
59526 59545 69
59545 59606 29
59545 61158 35
59606 59614 63
59614 59671 33
59614 61214 33
59671 59674 59
59674 59701 39
59674 61240 30
59701 59726 75
59726 59792 41
59726 61305 25
59792 59856 84
59856 59883 30
59856 61331 28
59883 60099 65
60099 60191 37
60099 61422 26
60191 60234 72
60234 60370 37
60234 61556 27
60370 60373 74
60373 58457 35
60373 65405 31
60449 58501 37
60475 58543 35
60501 58636 27
60537 58730 33
60652 58869 31
60694 58950 26
60727 59015 36
60766 59062 29
60804 59115 35
60911 59223 36
60967 59283 38
60993 59325 37
61028 59431 38
61098 59526 32
61158 59606 30
61214 59671 37
61240 59701 24
61305 59792 39
61331 59883 44
61422 60191 54
61556 60370 21
65405 65451 75
65451 65405 38
65451 92379 35
92379 92384 43
92384 94217 37
92384 161869 2
94217 94225 55
94225 94229 193
94229 94256 34
94229 94370 136
94229 94459 29
94256 94271 74
94271 94275 179
94275 94299 83
94275 94302 96
94299 94302 25
94299 94326 29
94302 94317 131
94317 94326 171
94326 94225 122
94326 94217 27
94326 1 31
94370 94378 96
94370 94459 37
94378 94397 29
94378 94256 33
94378 94317 46
94397 94271 107
94459 94397 63
111259 111282 65
111282 111284 31
111282 111317 36
111284 111317 42
111284 147531 45
111317 111344 52
111317 111409 35
111344 111348 76
111348 111259 52
111348 111284 44
111409 111344 36
147531 147537 117
147537 147531 69
147537 1 36
161869 161889 9
161889 161947 19
161947 161948 9
161947 161869 5
161948 165405 8
161948 1 2
165405 165447 6
165447 165614 4
165447 166180 3
165614 165617 8
165617 165675 8
165617 166237 4
165675 165684 10
165684 165753 7
165684 166305 6
165753 165759 8
165759 165786 6
165759 166331 5
165786 165834 7
165834 165405 3
165834 161889 1
166180 165614 3
166237 165675 4
166305 165753 3
166331 165786 5
216024 216025 108
216025 216026 368
216026 216028 387
216026 216024 20
216028 216029 121
216028 216147 158
216028 234685 85
216029 216030 46
216029 234629 22
216029 234631 41
216029 234848 18
216030 216146 22
216030 216024 19
216146 216025 79
216147 216148 104
216147 216202 21
216147 235070 23
216148 235072 44
216148 216202 23
216148 216026 29
216202 216203 47
216203 216025 103
234629 216025 57
234631 234629 20
234631 234955 18
234685 234686 55
234685 234848 32
234685 1 17
234686 216203 24
234686 235177 14
234848 216024 51
234955 234629 16
235070 216146 46
235072 235070 24
235072 216146 16
235177 216203 20
0 1 64
0 58457 23
0 111259 45
0 92379 6
0 216024 13