#gt5.kmer27.(4500000.4550000).V40.E61.mincyc36.e1.0
#construct-flow-graph.py -o graphs-g5-w50000-k27-cyc/ -g 5 -w 50000 -k 27 --mincycles 1 --nreads 5 --readlength 1000 --distribution lognormal11 --pdf
#kmersize=27
#windowsize=50000
#acyclic=False
#mincycles=1
#distribution=lognormal11
#ngenomes=5
#nreads=5
#readlength=1000
#outdir=graphs-g5-w50000-k27-cyc/
#pdf=True
#erroreps=1.0
#unique source is 0, unique sink is 1
#genomes: GCA_000005845.2_ASM584v2.fna GCA_000006665.1_ASM666v1.fna GCA_000007445.1_ASM744v1.fna GCA_000008865.2_ASM886v2.fna GCA_000009565.2_ASM956v1.fna 
# ground truth paths, in the format 'weight node1 node2 node3 ... '
#T 172 0 1 
#T 10 0 67473 1 
#T 14 0 149926 1 
#T 58 0 158619 158619 170773 170778 170833 170842 170869 170871 170914 170941 170977 170773 170778 171081 170833 170842 171107 170869 170871 171128 170914 171154 170941 170977 1 
#T 13 0 224290 224304 224331 224352 224353 224410 224290 224304 224436 224331 224352 224410 224290 224304 224331 224352 224353 224732 67473 232364 232366 224732 232374 232376 232386 232403 232431 232455 232460 232364 232366 224732 232374 232376 232386 232403 232464 232470 232485 232504 232508 232455 232460 232364 232366 224732 232374 232376 232470 232485 232431 232455 232460 232386 232403 232464 232504 232508 232366 224732 232374 1 
# subpath constraints, in the format 'node1 node2 node3 ... '
# 0 subpath constraints for genome
#S 0 1 
#S 0 1 
#S 0 1 
#S 0 1 
#S 0 1 
# 1 subpath constraints for genome
#S 0 67473 
#S 0 67473 
#S 0 67473 
#S 67473 1 
#S 67473 1 
# 2 subpath constraints for genome
#S 0 149926 
#S 0 149926 
#S 0 149926 
#S 0 149926 
#S 0 149926 
# 3 subpath constraints for genome
#S 170977 1 
#S 170977 1 
#S 170977 1 
#S 170977 1 
#S 158619 170773 
# 4 subpath constraints for genome
#S 67473 232364 
#S 232508 232366 
#S 0 224290 
#S 0 224290 
#S 232508 232366 
61
67473 1 12
67473 232364 17
149926 1 17
158619 158619 51
158619 170773 42
170773 170778 112
170778 170833 58
170778 171081 54
170833 170842 112
170842 170869 52
170842 171107 64
170869 170871 99
170871 170914 64
170871 171128 58
170914 170941 54
170914 171154 52
170941 170977 122
170977 170773 64
170977 1 63
171081 170833 62
171107 170869 64
171128 170914 48
171154 170941 54
224290 224304 53
224304 224331 24
224304 224436 15
224331 224352 36
224352 224353 31
224352 224410 11
224353 224410 15
224353 224732 16
224410 224290 30
224436 224331 18
224732 67473 11
224732 232374 47
232364 232366 40
232366 224732 72
232374 232376 39
232374 1 13
232376 232386 24
232376 232470 16
232386 232403 39
232403 232464 17
232403 232431 8
232431 232455 26
232455 232460 39
232460 232364 34
232460 232386 12
232464 232470 10
232464 232504 17
232470 232485 33
232485 232504 13
232485 232431 7
232504 232508 24
232508 232455 9
232508 232366 16
0 1 144
0 67473 12
0 149926 11
0 158619 70
0 224290 10