#gt5.kmer27.(3850000.3900000).V31.E48.mincyc12.e1.0
#construct-flow-graph.py -o graphs-g5-w50000-k27-cyc/ -g 5 -w 50000 -k 27 --mincycles 1 --nreads 5 --readlength 1000 --distribution lognormal11 --pdf
#kmersize=27
#windowsize=50000
#acyclic=False
#mincycles=1
#distribution=lognormal11
#ngenomes=5
#nreads=5
#readlength=1000
#outdir=graphs-g5-w50000-k27-cyc/
#pdf=True
#erroreps=1.0
#unique source is 0, unique sink is 1
#genomes: GCA_000005845.2_ASM584v2.fna GCA_000006665.1_ASM666v1.fna GCA_000007445.1_ASM744v1.fna GCA_000008865.2_ASM886v2.fna GCA_000009565.2_ASM956v1.fna 
# ground truth paths, in the format 'weight node1 node2 node3 ... '
#T 68 0 27585 27586 27597 27598 27599 27656 27660 1 
#T 75 0 61216 61221 61248 61287 61316 61350 61216 61221 61634 61248 61287 61662 61316 61350 74680 27586 27597 27598 27599 90609 1 
#T 10 0 108083 108084 108083 108084 1 
#T 154 0 90609 190951 190964 27656 27660 74680 27586 27597 27598 190951 190964 1 
#T 21 0 202717 27585 27586 27597 202717 227921 227922 227921 227922 227921 227922 243169 243176 243214 243263 243169 243176 244912 243214 243263 1 
# subpath constraints, in the format 'node1 node2 node3 ... '
# 0 subpath constraints for genome
#S 0 27585 
#S 0 27585 
#S 27660 1 
#S 0 27585 
#S 27660 1 
# 1 subpath constraints for genome
#S 90609 1 
#S 27599 90609 
#S 27599 90609 
#S 61350 74680 
#S 0 61216 
# 2 subpath constraints for genome
#S 108084 1 
#S 108084 1 
#S 108084 1 
#S 108084 1 
#S 108084 1 
# 3 subpath constraints for genome
#S 190964 1 
#S 0 90609 
#S 190964 1 
#S 0 90609 
#S 190964 1 
# 4 subpath constraints for genome
#S 227922 243169 
#S 202717 27585 
#S 202717 27585 
#S 202717 27585 
#S 202717 27585 
48
27585 27586 85
27586 27597 295
27597 27598 312
27597 202717 20
27598 27599 144
27598 190951 160
27599 27656 63
27599 90609 89
27656 27660 219
27660 1 61
27660 74680 176
61216 61221 139
61221 61248 64
61221 61634 74
61248 61287 155
61287 61316 87
61287 61662 50
61316 61350 149
61350 61216 67
61350 74680 82
61634 61248 65
61662 61316 80
74680 27586 242
90609 1 70
90609 190951 158
108083 108084 25
108084 108083 8
108084 1 10
190951 190964 270
190964 27656 154
190964 1 145
202717 27585 24
202717 227921 24
227921 227922 53
227922 227921 36
227922 243169 34
243169 243176 43
243176 243214 16
243176 244912 27
243214 243263 37
243263 243169 24
243263 1 22
244912 243214 18
0 27585 76
0 61216 63
0 108083 11
0 90609 175
0 202717 30