#gt5.kmer27.(2150000.2200000).V31.E45.mincyc7.e1.0
#construct-flow-graph.py -o graphs-g5-w50000-k27-cyc/ -g 5 -w 50000 -k 27 --mincycles 1 --nreads 5 --readlength 1000 --distribution lognormal11 --pdf
#kmersize=27
#windowsize=50000
#acyclic=False
#mincycles=1
#distribution=lognormal11
#ngenomes=5
#nreads=5
#readlength=1000
#outdir=graphs-g5-w50000-k27-cyc/
#pdf=True
#erroreps=1.0
#unique source is 0, unique sink is 1
#genomes: GCA_000005845.2_ASM584v2.fna GCA_000006665.1_ASM666v1.fna GCA_000007445.1_ASM744v1.fna GCA_000008865.2_ASM886v2.fna GCA_000009565.2_ASM956v1.fna 
# ground truth paths, in the format 'weight node1 node2 node3 ... '
#T 34 0 3447 3452 3447 3452 1 
#T 17 0 52435 52466 52493 52499 52526 52556 53335 53351 53560 53561 54405 54424 1 
#T 10 0 1 
#T 76 0 194269 52435 52466 194295 52493 52499 194321 52526 52556 194897 53335 53351 195106 53560 53561 196121 54405 54424 199786 1 
#T 51 0 247890 247893 247927 247940 247967 247971 247979 247893 247927 247940 248019 247967 247971 247890 247893 247927 247940 247967 247971 247979 247893 247927 247940 248019 247967 247971 247979 247893 247927 247940 248019 247967 247971 247979 247893 247927 248019 247967 247971 247979 1 
# subpath constraints, in the format 'node1 node2 node3 ... '
# 0 subpath constraints for genome
#S 3452 1 
#S 3452 1 
#S 3452 1 
#S 3452 1 
#S 3452 1 
# 1 subpath constraints for genome
#S 54424 1 
#S 54424 1 
#S 54424 1 
#S 54424 1 
#S 54424 1 
# 2 subpath constraints for genome
#S 0 1 
#S 0 1 
#S 0 1 
#S 0 1 
#S 0 1 
# 3 subpath constraints for genome
#S 0 194269 
#S 0 194269 
#S 0 194269 
#S 0 194269 
#S 0 194269 
# 4 subpath constraints for genome
#S 0 247890 
#S 0 247890 
#S 0 247890 
#S 0 247890 
#S 0 247890 
45
3447 3452 60
3452 3447 42
3452 1 27
52435 52466 112
52466 52493 13
52466 194295 75
52493 52499 109
52499 52526 13
52499 194321 76
52526 52556 109
52556 53335 19
52556 194897 77
53335 53351 95
53351 53560 24
53351 195106 82
53560 53561 111
53561 54405 15
53561 196121 73
54405 54424 96
54424 1 19
54424 199786 83
194269 52435 76
194295 52493 76
194321 52526 76
194897 53335 76
195106 53560 78
196121 54405 73
199786 1 68
247890 247893 100
247893 247927 307
247927 247940 243
247927 248019 53
247940 247967 95
247940 248019 140
247967 247971 318
247971 247979 265
247971 247890 55
247979 247893 198
247979 1 49
248019 247967 214
0 3447 36
0 52435 23
0 1 6
0 194269 50
0 247890 60