#gt5.kmer27.(2050000.2100000).V33.E50.mincyc100.e1.0
#construct-flow-graph.py -o graphs-g5-w50000-k27-cyc/ -g 5 -w 50000 -k 27 --mincycles 1 --nreads 5 --readlength 1000 --distribution lognormal11 --pdf
#kmersize=27
#windowsize=50000
#acyclic=False
#mincycles=1
#distribution=lognormal11
#ngenomes=5
#nreads=5
#readlength=1000
#outdir=graphs-g5-w50000-k27-cyc/
#pdf=True
#erroreps=1.0
#unique source is 0, unique sink is 1
#genomes: GCA_000005845.2_ASM584v2.fna GCA_000006665.1_ASM666v1.fna GCA_000007445.1_ASM744v1.fna GCA_000008865.2_ASM886v2.fna GCA_000009565.2_ASM956v1.fna 
# ground truth paths, in the format 'weight node1 node2 node3 ... '
#T 12 0 9847 9907 9847 9907 1 
#T 42 0 1 
#T 134 0 149865 1 
#T 11 0 154116 154123 173438 173439 173438 173439 1 
#T 86 0 201557 201569 201575 201599 201631 201658 201678 201720 201723 201750 201758 201761 201788 201796 201826 201853 201876 201599 201631 201952 201658 201678 201961 201720 201723 202019 201750 201758 201761 202045 201788 201796 202074 201826 202100 201853 201876 201557 201569 201575 201658 201678 201961 202222 201720 201723 201750 201758 201826 202100 201853 201876 201557 201569 154116 154123 1 
# subpath constraints, in the format 'node1 node2 node3 ... '
# 0 subpath constraints for genome
#S 9907 1 
#S 0 9847 9907 9847 
#S 9907 1 
#S 9907 1 
#S 9907 1 
# 1 subpath constraints for genome
#S 0 1 
#S 0 1 
#S 0 1 
#S 0 1 
#S 0 1 
# 2 subpath constraints for genome
#S 0 149865 
#S 0 149865 
#S 0 149865 
#S 0 149865 
#S 0 149865 
# 3 subpath constraints for genome
#S 154123 173438 
#S 154123 173438 
#S 154123 173438 
#S 173439 1 
#S 0 154116 
# 4 subpath constraints for genome
#S 154123 1 
#S 154123 1 
#S 201575 201599 201631 201658 201678 201720 201723 201750 201758 201761 201788 201796 201826 201853 201876 201599 201631 201952 201658 201678 201961 201720 201723 202019 201750 201758 201761 202045 201788 201796 202074 201826 202100 201853 201876 201557 201569 201575 201658 201678 201961 202222 201720 201723 201750 201758 201826 202100 201853 201876 201557 201569 154116 
#S 154123 1 
#S 154123 1 
50
9847 9907 26
9907 9847 4
9907 1 17
149865 1 126
154116 154123 81
154123 173438 13
154123 1 80
173438 173439 18
173439 173438 12
173439 1 5
201557 201569 239
201569 201575 181
201569 154116 96
201575 201599 78
201575 201658 85
201599 201631 181
201631 201658 90
201631 201952 81
201658 201678 246
201678 201720 85
201678 201961 166
201720 201723 250
201723 201750 180
201723 202019 77
201750 201758 261
201758 201761 165
201758 201826 77
201761 201788 82
201761 202045 76
201788 201796 180
201796 201826 86
201796 202074 83
201826 201853 77
201826 202100 162
201853 201876 272
201876 201599 86
201876 201557 162
201952 201658 72
201961 201720 86
201961 202222 71
202019 201750 86
202045 201788 79
202074 201826 88
202100 201853 190
202222 201720 97
0 9847 13
0 1 56
0 149865 130
0 154116 8
0 201557 84