#gt5.kmer27.(2900000.2950000).V25.E43.mincyc12.e1.0
#construct-flow-graph.py -o graphs-g5-w50000-k27-cyc/ -g 5 -w 50000 -k 27 --mincycles 1 --nreads 5 --readlength 1000 --distribution lognormal11 --pdf
#kmersize=27
#windowsize=50000
#acyclic=False
#mincycles=1
#distribution=lognormal11
#ngenomes=5
#nreads=5
#readlength=1000
#outdir=graphs-g5-w50000-k27-cyc/
#pdf=True
#erroreps=1.0
#unique source is 0, unique sink is 1
#genomes: GCA_000005845.2_ASM584v2.fna GCA_000006665.1_ASM666v1.fna GCA_000007445.1_ASM744v1.fna GCA_000008865.2_ASM886v2.fna GCA_000009565.2_ASM956v1.fna 
# ground truth paths, in the format 'weight node1 node2 node3 ... '
#T 35 0 4015 4074 4075 4015 4077 4134 4075 4015 4077 4135 4134 4075 4015 4077 4191 4134 4075 4015 4077 4135 4015 4077 4074 4075 4015 4077 4191 45871 45876 45941 47361 47416 47418 47458 47361 47416 47458 47361 47416 47418 1 
#T 6 0 71034 71037 82071 82071 82071 92267 92276 92303 92267 92276 96114 92303 1 
#T 27 0 45871 45876 71034 71037 1 
#T 54 0 1 
#T 12 0 200647 200649 45941 200647 200649 1 
# subpath constraints, in the format 'node1 node2 node3 ... '
# 0 subpath constraints for genome
#S 4191 45871 
#S 4191 45871 
#S 4191 45871 
#S 4191 45871 
#S 4191 4134 4075 4015 4077 4135 4015 4077 4074 4075 4015 4077 4191 45871 
# 1 subpath constraints for genome
#S 0 71034 
#S 0 71034 
#S 71037 82071 
#S 92303 92267 
#S 0 71034 
# 2 subpath constraints for genome
#S 71037 1 
#S 45876 71034 
#S 0 45871 
#S 0 45871 
#S 0 45871 
# 3 subpath constraints for genome
#S 0 1 
#S 0 1 
#S 0 1 
#S 0 1 
#S 0 1 
# 4 subpath constraints for genome
#S 200649 45941 
#S 45941 200647 
#S 45941 200647 
#S 200649 1 
#S 200649 45941 
43
4015 4074 31
4015 4077 217
4074 4075 73
4075 4015 170
4077 4135 83
4077 4191 74
4077 4134 29
4077 4074 35
4134 4075 89
4135 4134 35
4135 4015 29
4191 4134 36
4191 45871 25
45871 45876 52
45876 45941 51
45876 71034 34
45941 47361 27
45941 200647 23
47361 47416 91
47416 47418 87
47416 47458 20
47418 47458 28
47418 1 32
47458 47361 55
71034 71037 33
71037 82071 5
71037 1 22
82071 82071 11
82071 92267 4
92267 92276 9
92276 92303 10
92276 96114 9
92303 92267 5
92303 1 5
96114 92303 4
200647 200649 20
200649 45941 14
200649 1 12
0 4015 36
0 71034 9
0 45871 29
0 1 51
0 200647 13