#gt5.kmer27.(3400000.3450000).V63.E88.mincyc5.e1.0
#construct-flow-graph.py -o graphs-g5-w50000-k27-cyc/ -g 5 -w 50000 -k 27 --mincycles 1 --nreads 5 --readlength 1000 --distribution lognormal11 --pdf
#kmersize=27
#windowsize=50000
#acyclic=False
#mincycles=1
#distribution=lognormal11
#ngenomes=5
#nreads=5
#readlength=1000
#outdir=graphs-g5-w50000-k27-cyc/
#pdf=True
#erroreps=1.0
#unique source is 0, unique sink is 1
#genomes: GCA_000005845.2_ASM584v2.fna GCA_000006665.1_ASM666v1.fna GCA_000007445.1_ASM744v1.fna GCA_000008865.2_ASM886v2.fna GCA_000009565.2_ASM956v1.fna 
# ground truth paths, in the format 'weight node1 node2 node3 ... '
#T 78 0 23428 23505 23506 23663 23428 23505 23506 23698 23735 23762 23763 23790 24131 24160 24469 24504 24548 24575 24815 24842 24945 24982 25451 25496 25502 25536 26034 26061 26128 26166 26324 26351 26700 26734 26793 27099 27105 27133 27250 49897 1 
#T 16 0 1 
#T 82 0 111019 111028 112537 112538 112543 112663 111019 111028 112538 112543 112663 128158 128159 112537 112538 112543 128158 128159 1 
#T 55 0 23663 23428 23505 23698 23735 196146 23762 23763 196172 23790 24131 196200 24160 24469 196234 24504 24548 196260 24575 24815 196286 24842 24945 196322 24982 25451 196366 25496 25502 196398 25536 26034 196424 26061 26128 196461 26166 26324 196487 26351 26700 196529 26734 26793 196742 27099 27105 196769 27133 27250 1 
#T 19 0 246744 1 
# subpath constraints, in the format 'node1 node2 node3 ... '
# 0 subpath constraints for genome
#S 0 23428 
#S 27250 49897 
#S 27250 49897 
#S 0 23428 
#S 0 23428 
# 1 subpath constraints for genome
#S 0 1 
#S 0 1 
#S 0 1 
#S 0 1 
#S 0 1 
# 2 subpath constraints for genome
#S 0 111019 
#S 112543 112663 128158 128159 112537 112538 112543 128158 128159 1 
#S 112663 111019 
#S 111028 112537 112538 112543 112663 111019 
#S 0 111019 
# 3 subpath constraints for genome
#S 0 23663 23428 23505 23698 23735 196146 23762 23763 196172 23790 24131 196200 24160 24469 196234 
#S 0 23663 
#S 0 23663 
#S 0 23663 
#S 0 23663 
# 4 subpath constraints for genome
#S 0 246744 
#S 0 246744 
#S 0 246744 
#S 0 246744 
#S 0 246744 
88
23428 23505 210
23505 23506 158
23505 23698 62
23506 23663 80
23506 23698 79
23663 23428 138
23698 23735 123
23735 23762 85
23735 196146 55
23762 23763 120
23763 23790 82
23763 196172 62
23790 24131 121
24131 24160 85
24131 196200 46
24160 24469 159
24469 24504 88
24469 196234 61
24504 24548 116
24548 24575 79
24548 196260 60
24575 24815 118
24815 24842 62
24815 196286 55
24842 24945 138
24945 24982 74
24945 196322 53
24982 25451 136
25451 25496 87
25451 196366 60
25496 25502 130
25502 25536 66
25502 196398 64
25536 26034 140
26034 26061 89
26034 196424 52
26061 26128 150
26128 26166 76
26128 196461 56
26166 26324 134
26324 26351 63
26324 196487 43
26351 26700 133
26700 26734 67
26700 196529 54
26734 26793 147
26793 27099 57
26793 196742 70
27099 27105 129
27105 27133 84
27105 196769 58
27133 27250 138
27250 1 52
27250 49897 81
49897 1 75
111019 111028 150
111028 112537 81
111028 112538 66
112537 112538 157
112538 112543 215
112543 112663 167
112543 128158 76
112663 111019 78
112663 128158 90
128158 128159 170
128159 112537 65
128159 1 111
196146 23762 63
196172 23790 59
196200 24160 55
196234 24504 53
196260 24575 53
196286 24842 53
196322 24982 58
196366 25496 55
196398 25536 55
196424 26061 55
196461 26166 51
196487 26351 37
196529 26734 55
196742 27099 70
196769 27133 65
246744 1 24
0 23428 78
0 1 16
0 111019 100
0 23663 47
0 246744 20