#gt5.kmer27.(1850000.1900000).V154.E212.mincyc100.e1.0
#construct-flow-graph.py -o graphs-g5-w50000-k27-cyc/ -g 5 -w 50000 -k 27 --mincycles 1 --nreads 5 --readlength 1000 --distribution lognormal11 --pdf
#kmersize=27
#windowsize=50000
#acyclic=False
#mincycles=1
#distribution=lognormal11
#ngenomes=5
#nreads=5
#readlength=1000
#outdir=graphs-g5-w50000-k27-cyc/
#pdf=True
#erroreps=1.0
#unique source is 0, unique sink is 1
#genomes: GCA_000005845.2_ASM584v2.fna GCA_000006665.1_ASM666v1.fna GCA_000007445.1_ASM744v1.fna GCA_000008865.2_ASM886v2.fna GCA_000009565.2_ASM956v1.fna 
# ground truth paths, in the format 'weight node1 node2 node3 ... '
#T 91 0 1 
#T 24 0 53365 53387 53779 53832 53859 53894 53921 53949 53976 53980 54031 54098 54125 54130 54190 54191 57934 57994 58006 58078 58084 58348 58355 58987 59185 59204 61073 61075 61102 61104 61212 61251 61278 61297 62548 62563 62905 63214 63328 63334 63442 63541 64350 64354 64381 64390 64417 64450 64477 64554 64614 64620 65874 65908 65991 66038 66464 66467 66604 66680 66789 66899 66935 66944 66980 66994 67025 67037 67088 67124 67151 67316 67317 67379 67435 67529 67706 67733 67744 67771 67859 67886 67932 67965 68010 68037 68143 68170 68231 68257 68565 72451 72467 72451 72467 53365 53387 80934 53779 53832 80960 53859 53894 80986 53921 53949 81012 53976 53980 81064 54031 54098 81090 54125 54130 81232 54190 54191 85025 57934 85084 57994 58006 85155 58078 58084 85418 58348 58355 86026 58987 86223 59185 59204 88159 61073 61075 88185 61102 61104 88314 61212 61251 88340 61278 61297 89623 62548 62563 89967 62905 63214 90080 63328 63334 90187 63442 90285 63541 91100 64350 64354 91126 64381 64390 91152 64417 64450 91178 64477 64554 91236 64614 64620 92118 65874 65908 92220 65991 66038 93291 66464 66467 93434 66604 66680 93542 66789 66899 93577 66935 66944 93612 66980 66994 93642 67025 67037 93692 67088 67124 93718 67151 93882 67316 67317 93941 67379 67435 94036 67529 67706 94062 67733 67744 94088 67771 67859 94114 67886 67932 94146 67965 68010 94172 68037 68143 94198 68170 68231 94222 68257 68565 1 
#T 41 0 117015 117048 117051 117060 117069 117078 117015 117048 117051 117078 117015 117048 117163 117220 117060 117069 117163 117220 1 
#T 51 0 197644 1 
#T 63 0 237652 237727 237737 237727 237737 237652 1 
# subpath constraints, in the format 'node1 node2 node3 ... '
# 0 subpath constraints for genome
#S 0 1 
#S 0 1 
#S 0 1 
#S 0 1 
#S 0 1 
# 1 subpath constraints for genome
#S 61297 89623 62548 62563 89967 62905 63214 
#S 54191 85025 
#S 58084 58348 58355 58987 59185 
#S 72467 53365 53387 80934 53779 53832 80960 53859 53894 80986 53921 53949 81012 53976 53980 81064 54031 54098 81090 54125 54130 81232 54190 54191 85025 
#S 64620 65874 65908 65991 66038 66464 66467 66604 66680 66789 
# 2 subpath constraints for genome
#S 0 117015 
#S 117220 1 
#S 117220 1 
#S 0 117015 
#S 117220 1 
# 3 subpath constraints for genome
#S 0 197644 
#S 0 197644 
#S 0 197644 
#S 0 197644 
#S 0 197644 
# 4 subpath constraints for genome
#S 0 237652 
#S 0 237652 
#S 0 237652 
#S 0 237652 
#S 0 237652 
212
53365 53387 46
53387 53779 32
53387 80934 21
53779 53832 47
53832 53859 29
53832 80960 24
53859 53894 54
53894 53921 30
53894 80986 20
53921 53949 35
53949 53976 19
53949 81012 27
53976 53980 38
53980 54031 29
53980 81064 23
54031 54098 49
54098 54125 19
54098 81090 25
54125 54130 49
54130 54190 34
54130 81232 36
54190 54191 49
54191 57934 22
54191 85025 16
57934 57994 26
57934 85084 23
57994 58006 42
58006 58078 22
58006 85155 30
58078 58084 32
58084 58348 21
58084 85418 21
58348 58355 54
58355 58987 23
58355 86026 31
58987 59185 27
58987 86223 28
59185 59204 42
59204 61073 18
59204 88159 23
61073 61075 44
61075 61102 19
61075 88185 22
61102 61104 61
61104 61212 23
61104 88314 27
61212 61251 34
61251 61278 21
61251 88340 18
61278 61297 46
61297 62548 25
61297 89623 21
62548 62563 41
62563 62905 27
62563 89967 20
62905 63214 50
63214 63328 30
63214 90080 30
63328 63334 53
63334 63442 26
63334 90187 25
63442 63541 22
63442 90285 22
63541 64350 22
63541 91100 23
64350 64354 48
64354 64381 18
64354 91126 20
64381 64390 59
64390 64417 25
64390 91152 27
64417 64450 54
64450 64477 22
64450 91178 22
64477 64554 44
64554 64614 21
64554 91236 22
64614 64620 49
64620 65874 28
64620 92118 33
65874 65908 56
65908 65991 17
65908 92220 30
65991 66038 47
66038 66464 20
66038 93291 28
66464 66467 44
66467 66604 26
66467 93434 16
66604 66680 51
66680 66789 18
66680 93542 25
66789 66899 62
66899 66935 28
66899 93577 26
66935 66944 47
66944 66980 19
66944 93612 29
66980 66994 53
66994 67025 25
66994 93642 24
67025 67037 43
67037 67088 19
67037 93692 28
67088 67124 49
67124 67151 30
67124 93718 23
67151 67316 18
67151 93882 21
67316 67317 47
67317 67379 26
67317 93941 22
67379 67435 56
67435 67529 20
67435 94036 28
67529 67706 51
67706 67733 31
67706 94062 20
67733 67744 55
67744 67771 28
67744 94088 26
67771 67859 53
67859 67886 23
67859 94114 17
67886 67932 56
67932 67965 29
67932 94146 20
67965 68010 51
68010 68037 28
68010 94172 27
68037 68143 47
68143 68170 23
68143 94198 25
68170 68231 46
68231 68257 35
68231 94222 23
68257 68565 41
68565 72451 18
68565 1 20
72451 72467 48
72467 72451 29
72467 53365 17
80934 53779 17
80960 53859 21
80986 53921 26
81012 53976 18
81064 54031 29
81090 54125 27
81232 54190 32
85025 57934 21
85084 57994 28
85155 58078 33
85418 58348 29
86026 58987 30
86223 59185 34
88159 61073 30
88185 61102 18
88314 61212 27
88340 61278 34
89623 62548 24
89967 62905 26
90080 63328 32
90187 63442 25
90285 63541 16
91100 64350 36
91126 64381 20
91152 64417 35
91178 64477 12
91236 64614 19
92118 65874 24
92220 65991 21
93291 66464 16
93434 66604 22
93542 66789 25
93577 66935 19
93612 66980 28
93642 67025 29
93692 67088 26
93718 67151 20
93882 67316 21
93941 67379 28
94036 67529 17
94062 67733 23
94088 67771 22
94114 67886 25
94146 67965 16
94172 68037 18
94198 68170 27
94222 68257 35
117015 117048 105
117048 117051 85
117048 117163 44
117051 117060 42
117051 117078 43
117060 117069 97
117069 117078 48
117069 117163 35
117078 117015 68
117163 117220 76
117220 117060 40
117220 1 42
197644 1 46
237652 237727 62
237652 1 57
237727 237737 121
237737 237727 61
237737 237652 67
0 1 99
0 53365 21
0 117015 38
0 197644 48
0 237652 74