#gt5.kmer27.(1550000.1600000).V32.E46.mincyc7.e1.0
#construct-flow-graph.py -o graphs-g5-w50000-k27-cyc/ -g 5 -w 50000 -k 27 --mincycles 1 --nreads 5 --readlength 1000 --distribution lognormal11 --pdf
#kmersize=27
#windowsize=50000
#acyclic=False
#mincycles=1
#distribution=lognormal11
#ngenomes=5
#nreads=5
#readlength=1000
#outdir=graphs-g5-w50000-k27-cyc/
#pdf=True
#erroreps=1.0
#unique source is 0, unique sink is 1
#genomes: GCA_000005845.2_ASM584v2.fna GCA_000006665.1_ASM666v1.fna GCA_000007445.1_ASM744v1.fna GCA_000008865.2_ASM886v2.fna GCA_000009565.2_ASM956v1.fna 
# ground truth paths, in the format 'weight node1 node2 node3 ... '
#T 11 0 2036 2165 2036 2165 41781 42777 42804 43410 43437 43943 43970 43977 43997 44093 1 
#T 22 0 1 
#T 14 0 149796 1 
#T 66 0 168021 168090 168102 168114 168021 168090 168102 168114 168090 168102 168114 168090 168102 185542 185545 185599 185617 185644 185648 185542 185545 187862 185599 185617 187888 185644 185648 1 
#T 17 0 41781 42777 199500 42804 43410 199526 43437 43943 199552 43970 43977 199570 43997 44093 247233 1 
# subpath constraints, in the format 'node1 node2 node3 ... '
# 0 subpath constraints for genome
#S 2165 41781 
#S 2165 41781 
#S 44093 1 
#S 2165 41781 
#S 2165 41781 
# 1 subpath constraints for genome
#S 0 1 
#S 0 1 
#S 0 1 
#S 0 1 
#S 0 1 
# 2 subpath constraints for genome
#S 0 149796 
#S 0 149796 
#S 0 149796 
#S 0 149796 
#S 0 149796 
# 3 subpath constraints for genome
#S 0 168021 
#S 168021 168090 168102 168114 168021 168090 168102 168114 168090 168102 168114 168090 168102 185542 
#S 0 168021 
#S 168102 185542 
#S 185648 1 
# 4 subpath constraints for genome
#S 44093 247233 
#S 44093 247233 
#S 44093 247233 
#S 44093 247233 
#S 44093 247233 
46
2036 2165 27
2165 2036 12
2165 41781 10
41781 42777 24
42777 42804 7
42777 199500 11
42804 43410 26
43410 43437 10
43410 199526 15
43437 43943 27
43943 43970 16
43943 199552 14
43970 43977 22
43977 43997 7
43977 199570 15
43997 44093 29
44093 1 7
44093 247233 17
149796 1 8
168021 168090 128
168090 168102 257
168102 168114 190
168102 185542 66
168114 168021 70
168114 168090 134
185542 185545 130
185545 185599 75
185545 187862 67
185599 185617 116
185617 185644 55
185617 187888 72
185644 185648 139
185648 185542 75
185648 1 69
187862 185599 68
187888 185644 71
199500 42804 12
199526 43437 13
199552 43970 20
199570 43997 22
247233 1 13
0 41781 14
0 2036 16
0 1 28
0 149796 8
0 168021 86