#gt5.kmer27.(2200000.2250000).V31.E47.mincyc27.e1.0
#construct-flow-graph.py -o graphs-g5-w50000-k27-cyc/ -g 5 -w 50000 -k 27 --mincycles 1 --nreads 5 --readlength 1000 --distribution lognormal11 --pdf
#kmersize=27
#windowsize=50000
#acyclic=False
#mincycles=1
#distribution=lognormal11
#ngenomes=5
#nreads=5
#readlength=1000
#outdir=graphs-g5-w50000-k27-cyc/
#pdf=True
#erroreps=1.0
#unique source is 0, unique sink is 1
#genomes: GCA_000005845.2_ASM584v2.fna GCA_000006665.1_ASM666v1.fna GCA_000007445.1_ASM744v1.fna GCA_000008865.2_ASM886v2.fna GCA_000009565.2_ASM956v1.fna 
# ground truth paths, in the format 'weight node1 node2 node3 ... '
#T 25 0 36548 36550 36649 36655 36548 36550 1 
#T 15 0 36649 36655 1 
#T 85 0 1 
#T 16 0 150022 150034 150061 150076 150103 150110 160688 160704 160688 160704 176713 176722 176749 176761 176797 176824 176838 176857 176749 176761 176797 176936 176824 176838 176857 176713 176722 176761 176797 176936 176824 176838 150022 150034 199443 150061 150076 199469 150103 150110 1 
#T 12 0 206903 206906 206913 207016 206903 206906 207016 206903 206906 206913 237206 237219 237206 237219 1 
# subpath constraints, in the format 'node1 node2 node3 ... '
# 0 subpath constraints for genome
#S 36550 1 
#S 0 36548 
#S 36550 1 
#S 0 36548 
#S 0 36548 
# 1 subpath constraints for genome
#S 36655 1 
#S 36655 1 
#S 36655 1 
#S 0 36649 
#S 36655 1 
# 2 subpath constraints for genome
#S 0 1 
#S 0 1 
#S 0 1 
#S 0 1 
#S 0 1 
# 3 subpath constraints for genome
#S 176838 150022 
#S 150110 160688 
#S 176838 150022 
#S 176838 150022 
#S 160704 160688 160704 176713 
# 4 subpath constraints for genome
#S 206906 207016 
#S 206906 207016 
#S 0 206903 
#S 206906 207016 
#S 0 206903 
47
36548 36550 52
36550 36649 20
36550 1 30
36649 36655 41
36655 36548 27
36655 1 13
150022 150034 31
150034 150061 25
150034 199443 16
150061 150076 39
150076 150103 18
150076 199469 17
150103 150110 26
150110 160688 21
150110 1 12
160688 160704 21
160704 160688 11
160704 176713 19
176713 176722 24
176722 176749 14
176722 176761 8
176749 176761 28
176761 176797 47
176797 176824 8
176797 176936 32
176824 176838 40
176838 176857 43
176838 150022 18
176857 176749 15
176857 176713 20
176936 176824 30
199443 150061 14
199469 150103 10
206903 206906 41
206906 206913 21
206906 207016 13
206913 207016 15
206913 237206 13
207016 206903 20
237206 237219 28
237219 237206 18
237219 1 10
0 36548 23
0 36649 13
0 1 73
0 150022 13
0 206903 17