#gt5.kmer27.(250000.260000).V197.E265.mincyc1.e1.0
#construct-flow-graph.py -o graphs-g5-w10000-k27-cyc/ -g 5 -w 10000 -k 27 --mincycles 1 --nreads 5 --readlength 1000 --distribution lognormal11 --pdf
#kmersize=27
#windowsize=10000
#acyclic=False
#mincycles=1
#distribution=lognormal11
#ngenomes=5
#nreads=5
#readlength=1000
#outdir=graphs-g5-w10000-k27-cyc/
#pdf=True
#erroreps=1.0
#unique source is 0, unique sink is 1
#genomes: GCA_000005845.2_ASM584v2.fna GCA_000006665.1_ASM666v1.fna GCA_000007445.1_ASM744v1.fna GCA_000008865.2_ASM886v2.fna GCA_000009565.2_ASM956v1.fna 
# ground truth paths, in the format 'weight node1 node2 node3 ... '
#T 88 0 2 25 52 103 139 202 235 256 303 367 422 460 487 496 542 831 858 914 944 998 1025 1073 1100 1133 1160 1187 1196 1223 1259 1289 1304 1331 1403 1430 1436 1463 1493 1565 1598 1631 1661 1703 1730 1748 1796 1805 1833 1862 1889 1892 1919 1944 1971 2006 2015 2042 2216 2250 2416 2443 2472 2499 2548 2575 2607 2634 2705 2732 2766 2795 2798 2825 2858 2894 2897 2937 2953 2990 3016 3043 3092 3119 3131 3158 3186 3213 3288 3315 3335 3430 3658 3697 3712 3763 3869 3896 3968 3995 4006 4060 4063 4090 4296 4323 4381 4408 4666 4723 4759 4786 4804 4864 4868 4895 4939 4996 5023 5086 5092 5143 5152 5179 5223 5250 5329 5377 5473 1 
#T 19 0 1 
#T 33 0 29926 1 
#T 17 0 1 
#T 70 0 31997 32011 31997 32011 2 25 34497 52 103 34532 139 202 34564 235 256 34610 303 367 34664 422 460 34690 487 496 34735 542 831 34761 858 914 34790 944 998 34816 1025 1073 34842 1100 1133 34868 1160 34894 1187 1196 34920 1223 1259 34949 1289 1304 34975 1331 1403 35001 1430 1436 35027 1463 35056 1493 1565 35088 1598 1631 35117 1661 1703 35143 1730 1748 35190 1796 1805 35217 1833 1862 35243 1889 1892 35269 1919 1944 35295 1971 35329 2006 2015 35355 2042 2216 35388 2250 2416 35414 2443 2472 35440 2499 2548 35466 2575 2607 35492 2634 2705 35518 2732 2766 35546 2795 2798 35572 2825 2858 35607 2894 2897 35646 2937 2953 35682 2990 3016 35708 3043 3092 35734 3119 3131 35760 3158 3186 35786 3213 3288 35812 3315 3335 35834 3430 3658 35872 3697 3712 35922 3763 3869 35948 3896 3968 35974 3995 4006 36027 4060 4063 36053 4090 4296 36079 4323 4381 36105 4408 4666 36161 4723 4759 36187 4786 4804 36246 4864 4868 36272 4895 4939 36328 4996 5023 36390 5086 5092 36440 5143 5152 36466 5179 5223 36492 5250 5329 36539 5377 5473 36554 1 
# subpath constraints, in the format 'node1 node2 node3 ... '
# 0 subpath constraints for genome
#S 5473 1 
#S 5473 1 
#S 5473 1 
#S 858 914 944 998 1025 1073 1100 1133 1160 1187 1196 1223 1259 1289 1304 1331 1403 1430 1436 1463 1493 1565 1598 1631 1661 1703 1730 1748 1796 1805 1833 1862 1889 
#S 5473 1 
# 1 subpath constraints for genome
#S 0 1 
#S 0 1 
#S 0 1 
#S 0 1 
#S 0 1 
# 2 subpath constraints for genome
#S 0 29926 
#S 0 29926 
#S 0 29926 
#S 0 29926 
#S 0 29926 
# 3 subpath constraints for genome
#S 0 1 
#S 0 1 
#S 0 1 
#S 0 1 
#S 0 1 
# 4 subpath constraints for genome
#S 32011 2 
#S 4063 36053 4090 4296 36079 4323 4381 36105 4408 4666 36161 4723 4759 36187 4786 4804 36246 4864 4868 36272 4895 4939 36328 4996 5023 36390 5086 
#S 3712 35922 3763 3869 35948 3896 3968 35974 3995 4006 36027 4060 4063 36053 4090 4296 36079 4323 4381 36105 4408 4666 36161 4723 4759 
#S 0 31997 
#S 496 34735 542 831 34761 858 914 34790 944 998 34816 1025 1073 34842 1100 1133 34868 1160 34894 1187 1196 34920 1223 1259 34949 1289 1304 34975 1331 1403 35001 1430 1436 35027 1463 35056 1493 1565 
265
2 25 161
25 52 99
25 34497 70
52 103 158
103 139 115
103 34532 71
139 202 148
202 235 96
202 34564 61
235 256 180
256 303 88
256 34610 77
303 367 159
367 422 93
367 34664 74
422 460 158
460 487 74
460 34690 83
487 496 180
496 542 72
496 34735 62
542 831 149
831 858 83
831 34761 77
858 914 163
914 944 81
914 34790 66
944 998 190
998 1025 79
998 34816 76
1025 1073 142
1073 1100 89
1073 34842 85
1100 1133 137
1133 1160 97
1133 34868 73
1160 1187 88
1160 34894 68
1187 1196 158
1196 1223 72
1196 34920 81
1223 1259 148
1259 1289 80
1259 34949 65
1289 1304 150
1304 1331 98
1304 34975 54
1331 1403 163
1403 1430 87
1403 35001 60
1430 1436 153
1436 1463 91
1436 35027 71
1463 1493 90
1463 35056 52
1493 1565 161
1565 1598 99
1565 35088 80
1598 1631 177
1631 1661 68
1631 35117 83
1661 1703 161
1703 1730 82
1703 35143 81
1730 1748 158
1748 1796 99
1748 35190 67
1796 1805 153
1805 1833 89
1805 35217 69
1833 1862 163
1862 1889 69
1862 35243 71
1889 1892 171
1892 1919 84
1892 35269 80
1919 1944 139
1944 1971 89
1944 35295 62
1971 2006 84
1971 35329 64
2006 2015 154
2015 2042 84
2015 35355 76
2042 2216 179
2216 2250 88
2216 35388 65
2250 2416 159
2416 2443 88
2416 35414 68
2443 2472 153
2472 2499 89
2472 35440 62
2499 2548 175
2548 2575 79
2548 35466 82
2575 2607 173
2607 2634 94
2607 35492 68
2634 2705 158
2705 2732 86
2705 35518 66
2732 2766 164
2766 2795 86
2766 35546 49
2795 2798 138
2798 2825 76
2798 35572 57
2825 2858 167
2858 2894 89
2858 35607 60
2894 2897 176
2897 2937 101
2897 35646 72
2937 2953 162
2953 2990 97
2953 35682 60
2990 3016 148
3016 3043 72
3016 35708 80
3043 3092 165
3092 3119 89
3092 35734 74
3119 3131 174
3131 3158 77
3131 35760 70
3158 3186 162
3186 3213 94
3186 35786 77
3213 3288 145
3288 3315 87
3288 35812 69
3315 3335 168
3335 3430 84
3335 35834 82
3430 3658 149
3658 3697 76
3658 35872 76
3697 3712 170
3712 3763 89
3712 35922 62
3763 3869 158
3869 3896 108
3869 35948 67
3896 3968 150
3968 3995 81
3968 35974 77
3995 4006 175
4006 4060 87
4006 36027 66
4060 4063 157
4063 4090 79
4063 36053 72
4090 4296 159
4296 4323 85
4296 36079 78
4323 4381 141
4381 4408 84
4381 36105 81
4408 4666 161
4666 4723 97
4666 36161 65
4723 4759 164
4759 4786 93
4759 36187 67
4786 4804 164
4804 4864 102
4804 36246 68
4864 4868 155
4868 4895 81
4868 36272 76
4895 4939 178
4939 4996 80
4939 36328 90
4996 5023 172
5023 5086 96
5023 36390 72
5086 5092 165
5092 5143 76
5092 36440 71
5143 5152 162
5152 5179 104
5152 36466 82
5179 5223 161
5223 5250 77
5223 36492 69
5250 5329 166
5329 5377 83
5329 36539 66
5377 5473 144
5473 1 89
5473 36554 65
29926 1 37
31997 32011 128
32011 31997 88
32011 2 85
34497 52 62
34532 139 75
34564 235 75
34610 303 77
34664 422 65
34690 487 63
34735 542 59
34761 858 67
34790 944 70
34816 1025 73
34842 1100 80
34868 1160 67
34894 1187 82
34920 1223 74
34949 1289 78
34975 1331 72
35001 1430 59
35027 1463 77
35056 1493 61
35088 1598 73
35117 1661 85
35143 1730 66
35190 1796 77
35217 1833 70
35243 1889 73
35269 1919 82
35295 1971 66
35329 2006 63
35355 2042 70
35388 2250 69
35414 2443 70
35440 2499 72
35466 2575 73
35492 2634 71
35518 2732 65
35546 2795 62
35572 2825 55
35607 2894 70
35646 2937 72
35682 2990 70
35708 3043 66
35734 3119 75
35760 3158 81
35786 3213 59
35812 3315 72
35834 3430 80
35872 3697 64
35922 3763 77
35948 3896 73
35974 3995 81
36027 4060 63
36053 4090 79
36079 4323 73
36105 4408 63
36161 4723 78
36187 4786 73
36246 4864 54
36272 4895 64
36328 4996 59
36390 5086 54
36440 5143 74
36466 5179 79
36492 5250 62
36539 5377 50
36554 1 80
0 2 101
0 1 33
0 29926 39
0 31997 61