#gt5.kmer27.(730000.740000).V101.E141.mincyc100.e1.0
#construct-flow-graph.py -o graphs-g5-w10000-k27-cyc/ -g 5 -w 10000 -k 27 --mincycles 1 --nreads 5 --readlength 1000 --distribution lognormal11 --pdf
#kmersize=27
#windowsize=10000
#acyclic=False
#mincycles=1
#distribution=lognormal11
#ngenomes=5
#nreads=5
#readlength=1000
#outdir=graphs-g5-w10000-k27-cyc/
#pdf=True
#erroreps=1.0
#unique source is 0, unique sink is 1
#genomes: GCA_000005845.2_ASM584v2.fna GCA_000006665.1_ASM666v1.fna GCA_000007445.1_ASM744v1.fna GCA_000008865.2_ASM886v2.fna GCA_000009565.2_ASM956v1.fna 
# ground truth paths, in the format 'weight node1 node2 node3 ... '
#T 12 0 2288 2315 2342 2395 2422 2527 2554 2572 2605 2803 2830 2937 3013 3025 3106 3203 3232 3235 3262 3263 2288 2315 4184 2342 2395 4210 2422 2527 4236 2554 2572 4268 2605 2803 4294 2830 2937 4369 3013 3025 4449 3106 3203 4477 3232 3235 4503 3262 3263 5672 5691 5753 5813 5826 5854 5856 5896 5917 5942 5959 5979 5986 6007 6026 5672 5691 6057 6089 5753 5813 5826 6113 5942 5959 5986 6007 6429 6457 6484 6543 6574 6640 6679 6688 6736 6738 6765 6772 6057 6089 5813 5826 6113 5854 5856 7357 5896 5917 5979 5986 6007 6026 6429 6457 7600 6484 6543 7630 6574 6640 7668 6679 6688 7715 6736 6738 7741 6765 6772 1 
#T 58 0 8914 9470 9497 9643 9670 9785 9812 14727 14754 17573 17592 18315 18352 18477 18508 18668 18888 1 
#T 30 0 1 
#T 32 0 29082 8914 9470 29108 9497 9643 29134 9670 9785 29160 9812 14727 29186 14754 17573 29205 17592 18315 29241 18352 18477 29271 18508 18668 1 
#T 19 0 38479 38480 38529 38530 38691 38742 38768 38480 38529 38530 38844 38691 38742 38870 38768 38480 38529 38530 38479 38480 38529 1 
# subpath constraints, in the format 'node1 node2 node3 ... '
# 0 subpath constraints for genome
#S 6007 6429 6457 6484 6543 6574 6640 6679 6688 6736 6738 6765 6772 6057 6089 5813 
#S 0 2288 
#S 0 2288 2315 2342 2395 2422 2527 2554 2572 2605 
#S 0 2288 
#S 5826 5854 5856 5896 5917 5942 5959 5979 5986 6007 6026 5672 5691 6057 6089 5753 5813 5826 6113 5942 5959 5986 6007 6429 6457 6484 6543 6574 6640 6679 6688 6736 
# 1 subpath constraints for genome
#S 9812 14727 14754 17573 
#S 9812 14727 
#S 8914 9470 9497 9643 9670 9785 9812 14727 
#S 14754 17573 17592 18315 18352 18477 18508 18668 
#S 17592 18315 18352 18477 18508 18668 18888 
# 2 subpath constraints for genome
#S 0 1 
#S 0 1 
#S 0 1 
#S 0 1 
#S 0 1 
# 3 subpath constraints for genome
#S 9812 14727 
#S 9812 14727 
#S 9812 14727 
#S 14754 17573 29205 17592 18315 
#S 0 29082 8914 9470 29108 9497 9643 29134 9670 9785 29160 9812 14727 
# 4 subpath constraints for genome
#S 0 38479 
#S 0 38479 
#S 0 38479 
#S 38530 38479 38480 38529 
#S 0 38479 
141
2288 2315 34
2315 2342 12
2315 4184 11
2342 2395 18
2395 2422 16
2395 4210 13
2422 2527 19
2527 2554 18
2527 4236 9
2554 2572 20
2572 2605 14
2572 4268 25
2605 2803 18
2803 2830 12
2803 4294 14
2830 2937 32
2937 3013 14
2937 4369 11
3013 3025 33
3025 3106 22
3025 4449 9
3106 3203 26
3203 3232 14
3203 4477 8
3232 3235 26
3235 3262 18
3235 4503 12
3262 3263 18
3263 2288 18
3263 5672 13
4184 2342 9
4210 2422 11
4236 2554 11
4268 2605 13
4294 2830 16
4369 3013 13
4449 3106 17
4477 3232 19
4503 3262 16
5672 5691 23
5691 5753 11
5691 6057 15
5753 5813 21
5813 5826 35
5826 6113 26
5826 5854 12
5854 5856 29
5856 5896 15
5856 7357 8
5896 5917 25
5917 5942 11
5917 5979 17
5942 5959 28
5959 5979 13
5959 5986 8
5979 5986 18
5986 6007 26
6007 6026 25
6007 6429 19
6026 5672 13
6026 6429 11
6057 6089 23
6089 5753 11
6089 5813 12
6113 5942 13
6113 5854 15
6429 6457 22
6457 6484 10
6457 7600 7
6484 6543 29
6543 6574 14
6543 7630 14
6574 6640 22
6640 6679 12
6640 7668 20
6679 6688 27
6688 6736 8
6688 7715 12
6736 6738 21
6738 6765 9
6738 7741 9
6765 6772 32
6772 6057 15
6772 1 10
7357 5896 16
7600 6484 9
7630 6574 11
7668 6679 11
7715 6736 13
7741 6765 5
8914 9470 108
9470 9497 72
9470 29108 30
9497 9643 70
9643 9670 55
9643 29134 18
9670 9785 102
9785 9812 48
9785 29160 39
9812 14727 84
14727 14754 62
14727 29186 32
14754 17573 86
17573 17592 53
17573 29205 42
17592 18315 82
18315 18352 54
18315 29241 34
18352 18477 94
18477 18508 63
18477 29271 31
18508 18668 93
18668 1 35
18668 18888 47
18888 1 63
29082 8914 23
29108 9497 35
29134 9670 32
29160 9812 39
29186 14754 24
29205 17592 24
29241 18352 35
29271 18508 41
38479 38480 37
38480 38529 74
38529 38530 54
38529 1 24
38530 38691 24
38530 38844 18
38530 38479 12
38691 38742 45
38742 38768 18
38742 38870 16
38768 38480 42
38844 38691 23
38870 38768 19
0 8914 70
0 2288 15
0 1 26
0 29082 34
0 38479 9