#gt5.kmer27.(1130000.1140000).V54.E74.mincyc1.e1.0
#construct-flow-graph.py -o graphs-g5-w10000-k27-cyc/ -g 5 -w 10000 -k 27 --mincycles 1 --nreads 5 --readlength 1000 --distribution lognormal11 --pdf
#kmersize=27
#windowsize=10000
#acyclic=False
#mincycles=1
#distribution=lognormal11
#ngenomes=5
#nreads=5
#readlength=1000
#outdir=graphs-g5-w10000-k27-cyc/
#pdf=True
#erroreps=1.0
#unique source is 0, unique sink is 1
#genomes: GCA_000005845.2_ASM584v2.fna GCA_000006665.1_ASM666v1.fna GCA_000007445.1_ASM744v1.fna GCA_000008865.2_ASM886v2.fna GCA_000009565.2_ASM956v1.fna 
# ground truth paths, in the format 'weight node1 node2 node3 ... '
#T 70 0 2 1151 1178 1211 1238 1355 1382 1499 1526 1667 1694 1706 1739 1784 1811 2147 2174 2457 2484 3031 3058 3204 3352 3391 3418 3472 3499 5880 5910 6147 6174 7415 9976 1 
#T 13 0 1 
#T 4 0 22581 22584 22581 22584 1 
#T 63 0 39897 1 
#T 29 0 42461 2 1151 42487 1178 1211 42513 1238 1355 42539 1382 1499 42565 1526 1667 42591 1694 1706 42623 1739 1784 42649 1811 2147 42675 2174 2457 42701 2484 3031 42727 3058 3204 42871 3352 3391 42897 3418 3472 42923 3499 5880 42952 5910 6147 42978 6174 7415 1 
# subpath constraints, in the format 'node1 node2 node3 ... '
# 0 subpath constraints for genome
#S 1811 2147 2174 2457 2484 3031 3058 3204 
#S 6174 7415 9976 
#S 2 1151 1178 1211 1238 1355 1382 1499 1526 1667 
#S 3499 5880 5910 6147 6174 7415 
#S 6174 7415 9976 
# 1 subpath constraints for genome
#S 0 1 
#S 0 1 
#S 0 1 
#S 0 1 
#S 0 1 
# 2 subpath constraints for genome
#S 22584 1 
#S 22584 1 
#S 22584 1 
#S 0 22581 
#S 22584 22581 22584 1 
# 3 subpath constraints for genome
#S 0 39897 
#S 0 39897 
#S 0 39897 
#S 0 39897 
#S 0 39897 
# 4 subpath constraints for genome
#S 0 42461 
#S 3499 5880 
#S 
#S 3499 5880 42952 5910 6147 42978 6174 7415 
#S 1526 1667 42591 1694 1706 42623 1739 1784 42649 1811 2147 42675 2174 2457 42701 2484 3031 
74
2 1151 108
1151 1178 78
1151 42487 29
1178 1211 110
1211 1238 59
1211 42513 27
1238 1355 101
1355 1382 59
1355 42539 32
1382 1499 122
1499 1526 72
1499 42565 21
1526 1667 92
1667 1694 73
1667 42591 28
1694 1706 89
1706 1739 67
1706 42623 22
1739 1784 104
1784 1811 74
1784 42649 25
1811 2147 102
2147 2174 69
2147 42675 25
2174 2457 93
2457 2484 70
2457 42701 34
2484 3031 106
3031 3058 74
3031 42727 26
3058 3204 96
3204 3352 74
3204 42871 25
3352 3391 85
3391 3418 82
3391 42897 25
3418 3472 110
3472 3499 64
3472 42923 33
3499 5880 116
5880 5910 76
5880 42952 28
5910 6147 92
6147 6174 52
6147 42978 22
6174 7415 104
7415 1 33
7415 9976 77
9976 1 73
22581 22584 5
22584 22581 6
22584 1 3
39897 1 49
42461 2 33
42487 1178 26
42513 1238 30
42539 1382 30
42565 1526 24
42591 1694 23
42623 1739 27
42649 1811 31
42675 2174 23
42701 2484 35
42727 3058 24
42871 3352 24
42897 3418 37
42923 3499 27
42952 5910 34
42978 6174 32
0 2 78
0 1 9
0 22581 8
0 39897 63
0 42461 25