#gt5.kmer27.(340000.350000).V32.E48.mincyc11.e1.0
#construct-flow-graph.py -o graphs-g5-w10000-k27-cyc/ -g 5 -w 10000 -k 27 --mincycles 1 --nreads 5 --readlength 1000 --distribution lognormal11 --pdf
#kmersize=27
#windowsize=10000
#acyclic=False
#mincycles=1
#distribution=lognormal11
#ngenomes=5
#nreads=5
#readlength=1000
#outdir=graphs-g5-w10000-k27-cyc/
#pdf=True
#erroreps=1.0
#unique source is 0, unique sink is 1
#genomes: GCA_000005845.2_ASM584v2.fna GCA_000006665.1_ASM666v1.fna GCA_000007445.1_ASM744v1.fna GCA_000008865.2_ASM886v2.fna GCA_000009565.2_ASM956v1.fna 
# ground truth paths, in the format 'weight node1 node2 node3 ... '
#T 33 0 36 45 9617 9644 9648 9678 9692 9719 9644 9648 9737 9757 9678 9692 9617 9787 9719 9644 9648 9737 9757 9678 9692 9617 9787 9737 9757 1 
#T 16 0 15405 15432 17850 17875 19570 19597 19819 1 
#T 23 0 21313 21544 21313 21544 21313 21544 1 
#T 60 0 15405 28583 15432 17850 28606 17875 19570 28631 19597 19819 28633 1 
#T 63 0 33085 33085 36 45 35302 35303 35344 35355 35302 35303 35441 35344 35355 1 
# subpath constraints, in the format 'node1 node2 node3 ... '
# 0 subpath constraints for genome
#S 45 9617 
#S 45 9617 9644 9648 9678 9692 9719 9644 9648 9737 9757 9678 9692 9617 9787 9719 9644 9648 9737 9757 9678 9692 9617 9787 9737 9757 1 
#S 45 9617 9644 9648 9678 9692 9719 9644 9648 9737 9757 9678 9692 9617 9787 9719 9644 9648 9737 9757 9678 9692 9617 9787 9737 9757 1 
#S 45 9617 
#S 45 9617 9644 9648 9678 9692 9719 9644 9648 9737 9757 9678 9692 9617 9787 9719 9644 9648 9737 9757 9678 9692 9617 9787 9737 9757 1 
# 1 subpath constraints for genome
#S 17875 19570 19597 19819 
#S 15432 17850 17875 19570 
#S 0 15405 
#S 17875 19570 
#S 17875 19570 19597 19819 
# 2 subpath constraints for genome
#S 21544 1 
#S 21544 1 
#S 0 21313 21544 21313 
#S 21544 1 
#S 21544 1 
# 3 subpath constraints for genome
#S 15432 17850 28606 17875 19570 
#S 0 15405 
#S 15432 17850 
#S 15432 17850 28606 17875 19570 
#S 17875 19570 28631 19597 19819 
# 4 subpath constraints for genome
#S 45 35302 
#S 0 33085 
#S 35355 1 
#S 35355 1 
#S 35355 1 
48
36 45 92
45 9617 32
45 35302 53
9617 9644 29
9617 9787 63
9644 9648 99
9648 9737 76
9648 9678 27
9678 9692 101
9692 9719 38
9692 9617 72
9719 9644 75
9737 9757 115
9757 9678 59
9757 1 33
9787 9719 37
9787 9737 38
15405 15432 15
15405 28583 60
15432 17850 53
17850 17875 21
17850 28606 53
17875 19570 94
19570 19597 15
19570 28631 50
19597 19819 54
19819 1 11
19819 28633 68
21313 21544 61
21544 21313 50
21544 1 30
28583 15432 66
28606 17875 49
28631 19597 74
28633 1 47
33085 33085 72
33085 36 68
35302 35303 113
35303 35344 67
35303 35441 57
35344 35355 140
35355 35302 62
35355 1 65
35441 35344 54
0 36 38
0 15405 82
0 21313 21
0 33085 64