#gt5.kmer27.(2710000.2720000).V38.E57.mincyc30.e1.0
#construct-flow-graph.py -o graphs-g5-w10000-k27-cyc/ -g 5 -w 10000 -k 27 --mincycles 1 --nreads 5 --readlength 1000 --distribution lognormal11 --pdf
#kmersize=27
#windowsize=10000
#acyclic=False
#mincycles=1
#distribution=lognormal11
#ngenomes=5
#nreads=5
#readlength=1000
#outdir=graphs-g5-w10000-k27-cyc/
#pdf=True
#erroreps=1.0
#unique source is 0, unique sink is 1
#genomes: GCA_000005845.2_ASM584v2.fna GCA_000006665.1_ASM666v1.fna GCA_000007445.1_ASM744v1.fna GCA_000008865.2_ASM886v2.fna GCA_000009565.2_ASM956v1.fna 
# ground truth paths, in the format 'weight node1 node2 node3 ... '
#T 6 0 1 
#T 32 0 9977 10099 10191 10234 10370 10373 9977 10099 12025 10191 10234 12159 10370 10373 16008 16054 16008 16054 1 
#T 25 0 22265 22288 22290 22323 22350 22354 22265 22288 22323 22415 22350 22354 22290 1 
#T 168 0 36442 36484 36651 36654 36712 36721 36790 36796 36823 36871 36442 36484 37217 36651 36654 37274 36712 36721 37342 36790 36796 37368 36823 36871 1 
#T 31 0 47200 47201 47204 47206 47201 47204 47324 47201 47204 47206 47200 47201 47204 47324 1 
# subpath constraints, in the format 'node1 node2 node3 ... '
# 0 subpath constraints for genome
#S 0 1 
#S 0 1 
#S 0 1 
#S 0 1 
#S 0 1 
# 1 subpath constraints for genome
#S 10373 16008 
#S 16054 1 
#S 9977 10099 10191 10234 10370 10373 9977 
#S 10234 12159 10370 10373 16008 
#S 10373 16008 
# 2 subpath constraints for genome
#S 22290 1 
#S 22290 1 
#S 22290 1 
#S 22290 1 
#S 22290 1 
# 3 subpath constraints for genome
#S 36871 36442 36484 37217 36651 36654 37274 36712 36721 37342 36790 36796 37368 36823 36871 1 
#S 0 36442 
#S 0 36442 
#S 0 36442 
#S 36871 1 
# 4 subpath constraints for genome
#S 0 47200 
#S 0 47200 
#S 47324 1 
#S 0 47200 
#S 0 47200 
57
9977 10099 61
10099 10191 30
10099 12025 36
10191 10234 78
10234 10370 30
10234 12159 40
10370 10373 64
10373 9977 46
10373 16008 20
12025 10191 25
12159 10370 27
16008 16054 61
16054 16008 47
16054 1 37
22265 22288 54
22288 22290 30
22288 22323 23
22290 22323 21
22290 1 18
22323 22350 23
22323 22415 30
22350 22354 42
22354 22265 26
22354 22290 28
22415 22350 17
36442 36484 338
36484 36651 174
36484 37217 157
36651 36654 355
36654 36712 173
36654 37274 177
36712 36721 342
36721 36790 159
36721 37342 174
36790 36796 322
36796 36823 176
36796 37368 170
36823 36871 339
36871 36442 182
36871 1 185
37217 36651 183
37274 36712 167
37342 36790 168
37368 36823 158
47200 47201 60
47201 47204 138
47204 47206 61
47204 47324 68
47206 47201 33
47206 47200 29
47324 47201 44
47324 1 24
0 9977 32
0 1 6
0 22265 17
0 36442 145
0 47200 38