#gt5.kmer27.(660000.670000).V56.E77.mincyc100.e1.0
#construct-flow-graph.py -o graphs-g5-w10000-k27-cyc/ -g 5 -w 10000 -k 27 --mincycles 1 --nreads 5 --readlength 1000 --distribution lognormal11 --pdf
#kmersize=27
#windowsize=10000
#acyclic=False
#mincycles=1
#distribution=lognormal11
#ngenomes=5
#nreads=5
#readlength=1000
#outdir=graphs-g5-w10000-k27-cyc/
#pdf=True
#erroreps=1.0
#unique source is 0, unique sink is 1
#genomes: GCA_000005845.2_ASM584v2.fna GCA_000006665.1_ASM666v1.fna GCA_000007445.1_ASM744v1.fna GCA_000008865.2_ASM886v2.fna GCA_000009565.2_ASM956v1.fna 
# ground truth paths, in the format 'weight node1 node2 node3 ... '
#T 13 0 1 
#T 14 0 9977 16369 16372 16399 16411 16461 16462 16518 16567 16594 16615 16678 16727 16743 16785 16813 16843 16876 16888 16929 16951 17002 17017 17044 17048 17112 17113 17164 17218 17245 17287 17518 17542 16369 16372 18338 16399 16411 18387 16461 16462 18442 16518 16567 18468 16594 16615 18530 16678 18578 16727 16743 18619 16785 16813 18648 16843 18680 16876 16888 18720 16929 16951 18770 17002 17017 18796 17044 17048 18859 17112 17113 18909 17164 17218 18935 17245 17287 19349 19655 1 
#T 35 0 29630 1 
#T 99 0 29937 9977 16369 16372 16399 16411 16461 16462 16518 16567 16594 16615 16678 16727 16743 16785 16813 16843 16876 16888 16929 16951 17002 17017 17044 17048 17112 17113 17164 17218 17245 17287 17518 29959 17542 16369 16372 18338 16399 16411 18387 16461 16462 18442 16518 16567 18468 16594 16615 18530 16678 18578 16727 16743 18619 16785 16813 18648 16843 18680 16876 16888 18720 16929 16951 18770 17002 17017 18796 17044 17048 18859 17112 17113 18909 17164 17218 18935 17245 17287 19349 1 
#T 18 0 39934 1 
# subpath constraints, in the format 'node1 node2 node3 ... '
# 0 subpath constraints for genome
#S 0 1 
#S 0 1 
#S 0 1 
#S 0 1 
#S 0 1 
# 1 subpath constraints for genome
#S 16594 16615 16678 16727 16743 16785 16813 16843 16876 16888 16929 16951 17002 17017 17044 17048 17112 17113 17164 17218 17245 17287 17518 17542 16369 
#S 9977 16369 
#S 17542 16369 16372 18338 16399 16411 18387 16461 16462 18442 16518 16567 18468 16594 16615 18530 
#S 9977 16369 
#S 17542 16369 16372 18338 16399 16411 18387 16461 16462 18442 16518 16567 18468 16594 16615 18530 16678 18578 16727 16743 18619 16785 16813 18648 16843 18680 16876 16888 18720 16929 16951 18770 17002 17017 18796 17044 17048 18859 17112 17113 18909 17164 17218 18935 17245 17287 19349 
# 2 subpath constraints for genome
#S 0 29630 
#S 0 29630 
#S 0 29630 
#S 0 29630 
#S 0 29630 
# 3 subpath constraints for genome
#S 16615 18530 16678 18578 16727 16743 18619 16785 16813 18648 16843 18680 16876 16888 18720 16929 16951 18770 17002 17017 18796 17044 17048 18859 17112 17113 18909 17164 17218 18935 17245 17287 19349 
#S 16888 16929 16951 17002 17017 17044 17048 17112 17113 17164 17218 17245 17287 17518 29959 17542 16369 
#S 9977 16369 
#S 9977 16369 16372 16399 16411 16461 16462 16518 16567 16594 16615 16678 16727 16743 16785 16813 16843 16876 16888 16929 16951 17002 17017 17044 17048 17112 17113 17164 17218 17245 17287 17518 
#S 17287 19349 
# 4 subpath constraints for genome
#S 0 39934 
#S 0 39934 
#S 0 39934 
#S 0 39934 
#S 0 39934 
77
9977 16369 126
16369 16372 230
16372 16399 110
16372 18338 113
16399 16411 243
16411 16461 95
16411 18387 114
16461 16462 196
16462 16518 113
16462 18442 110
16518 16567 202
16567 16594 118
16567 18468 110
16594 16615 239
16615 16678 109
16615 18530 113
16678 16727 123
16678 18578 115
16727 16743 218
16743 16785 138
16743 18619 101
16785 16813 243
16813 16843 111
16813 18648 102
16843 16876 119
16843 18680 108
16876 16888 226
16888 16929 107
16888 18720 102
16929 16951 249
16951 17002 100
16951 18770 118
17002 17017 219
17017 17044 112
17017 18796 104
17044 17048 190
17048 17112 107
17048 18859 126
17112 17113 229
17113 17164 130
17113 18909 116
17164 17218 218
17218 17245 114
17218 18935 106
17245 17287 210
17287 17518 116
17287 19349 116
17518 17542 18
17518 29959 97
17542 16369 93
18338 16399 108
18387 16461 114
18442 16518 104
18468 16594 113
18530 16678 114
18578 16727 113
18619 16785 117
18648 16843 113
18680 16876 109
18720 16929 113
18770 17002 114
18796 17044 128
18859 17112 137
18909 17164 108
18935 17245 104
19349 1 120
19349 19655 10
19655 1 9
29630 1 36
29937 9977 93
29959 17542 98
39934 1 11
0 9977 15
0 1 17
0 29630 34
0 29937 107
0 39934 25