#gt5.kmer27.(980000.990000).V49.E69.mincyc6.e1.0
#construct-flow-graph.py -o graphs-g5-w10000-k27-cyc/ -g 5 -w 10000 -k 27 --mincycles 1 --nreads 5 --readlength 1000 --distribution lognormal11 --pdf
#kmersize=27
#windowsize=10000
#acyclic=False
#mincycles=1
#distribution=lognormal11
#ngenomes=5
#nreads=5
#readlength=1000
#outdir=graphs-g5-w10000-k27-cyc/
#pdf=True
#erroreps=1.0
#unique source is 0, unique sink is 1
#genomes: GCA_000005845.2_ASM584v2.fna GCA_000006665.1_ASM666v1.fna GCA_000007445.1_ASM744v1.fna GCA_000008865.2_ASM886v2.fna GCA_000009565.2_ASM956v1.fna 
# ground truth paths, in the format 'weight node1 node2 node3 ... '
#T 16 0 2 1050 1077 2092 2119 3547 3574 3599 3630 4301 4328 4892 9976 1 
#T 79 0 11631 11632 11695 11731 11752 11788 15002 15028 18921 18948 19726 19753 19951 1 
#T 8 0 29559 29564 29580 29559 29564 29613 29617 29618 29619 29634 29636 29613 29617 29634 29636 29580 29618 29619 1 
#T 69 0 11632 11695 29943 11731 11752 29978 11788 15002 30002 15028 18921 30028 18948 19726 30054 19753 19951 31711 1 
#T 57 0 36795 2 1050 36821 1077 2092 36847 2119 3547 36873 3574 3599 36903 3630 4301 36929 4328 4892 1 
# subpath constraints, in the format 'node1 node2 node3 ... '
# 0 subpath constraints for genome
#S 1077 2092 2119 3547 
#S 4892 9976 
#S 4892 9976 
#S 2119 3547 3574 3599 3630 4301 4328 4892 
#S 4892 9976 
# 1 subpath constraints for genome
#S 15028 18921 
#S 0 11631 
#S 11788 15002 15028 18921 
#S 15028 18921 
#S 15028 18921 18948 19726 
# 2 subpath constraints for genome
#S 0 29559 29564 29580 29559 29564 29613 29617 29618 29619 29634 29636 29613 29617 29634 29636 29580 29618 29619 1 
#S 0 29559 
#S 0 29559 
#S 0 29559 
#S 0 29559 
# 3 subpath constraints for genome
#S 11788 15002 30002 15028 18921 
#S 15028 18921 
#S 15028 18921 
#S 18948 19726 30054 19753 19951 31711 
#S 11788 15002 30002 15028 18921 
# 4 subpath constraints for genome
#S 1077 2092 36847 2119 3547 
#S 0 36795 
#S 0 36795 
#S 3630 4301 36929 4328 4892 
#S 0 36795 
69
2 1050 77
1050 1077 11
1050 36821 64
1077 2092 63
2092 2119 17
2092 36847 55
2119 3547 80
3547 3574 14
3547 36873 54
3574 3599 74
3599 3630 21
3599 36903 59
3630 4301 81
4301 4328 19
4301 36929 55
4328 4892 62
4892 1 60
4892 9976 21
9976 1 17
11631 11632 79
11632 11695 151
11695 11731 71
11695 29943 73
11731 11752 144
11752 11788 81
11752 29978 81
11788 15002 147
15002 15028 96
15002 30002 48
15028 18921 161
18921 18948 76
18921 30028 85
18948 19726 144
19726 19753 74
19726 30054 76
19753 19951 159
19951 1 71
19951 31711 71
29559 29564 14
29564 29580 9
29564 29613 5
29580 29559 4
29580 29618 7
29613 29617 21
29617 29618 6
29617 29634 4
29618 29619 18
29619 29634 7
29619 1 10
29634 29636 13
29636 29613 13
29636 29580 9
29943 11731 76
29978 11788 69
30002 15028 71
30028 18948 54
30054 19753 72
31711 1 62
36795 2 58
36821 1077 61
36847 2119 51
36873 3574 63
36903 3630 55
36929 4328 64
0 2 17
0 11632 66
0 11631 74
0 29559 8
0 36795 53