#gt5.kmer27.(4200000.4210000).V30.E48.mincyc70.e1.0
#construct-flow-graph.py -o graphs-g5-w10000-k27-cyc/ -g 5 -w 10000 -k 27 --mincycles 1 --nreads 5 --readlength 1000 --distribution lognormal11 --pdf
#kmersize=27
#windowsize=10000
#acyclic=False
#mincycles=1
#distribution=lognormal11
#ngenomes=5
#nreads=5
#readlength=1000
#outdir=graphs-g5-w10000-k27-cyc/
#pdf=True
#erroreps=1.0
#unique source is 0, unique sink is 1
#genomes: GCA_000005845.2_ASM584v2.fna GCA_000006665.1_ASM666v1.fna GCA_000007445.1_ASM744v1.fna GCA_000008865.2_ASM886v2.fna GCA_000009565.2_ASM956v1.fna 
# ground truth paths, in the format 'weight node1 node2 node3 ... '
#T 33 0 1 
#T 8 0 19951 1 
#T 100 0 21763 21828 21831 21763 21828 21831 27408 27411 27438 27441 27465 27486 27492 27558 27592 27619 27621 27624 27408 27411 27662 27438 27441 27694 27712 27492 27558 27592 27740 27619 27621 27624 27761 27767 27662 27438 27441 27465 27694 27712 27492 27558 27592 27740 27619 27621 27624 27761 27767 27465 27486 27842 27866 27558 27592 27740 27761 27767 27465 27694 27712 27842 27866 27621 1 
#T 47 0 31173 31178 31173 31178 1 
#T 25 0 42570 42619 42570 42619 42570 42619 21828 1 
# subpath constraints, in the format 'node1 node2 node3 ... '
# 0 subpath constraints for genome
#S 0 1 
#S 0 1 
#S 0 1 
#S 0 1 
#S 0 1 
# 1 subpath constraints for genome
#S 0 19951 
#S 0 19951 
#S 0 19951 
#S 0 19951 
#S 0 19951 
# 2 subpath constraints for genome
#S 27621 1 
#S 27621 1 
#S 0 21763 
#S 0 21763 
#S 0 21763 
# 3 subpath constraints for genome
#S 31178 31173 31178 1 
#S 31178 1 
#S 31178 1 
#S 31178 1 
#S 31178 1 
# 4 subpath constraints for genome
#S 0 42570 42619 42570 42619 42570 42619 21828 1 
#S 21828 1 
#S 21828 1 
#S 0 42570 42619 42570 42619 
#S 21828 1 
48
19951 1 10
21763 21828 183
21828 21831 173
21828 1 23
21831 21763 111
21831 27408 86
27408 27411 201
27411 27438 91
27411 27662 110
27438 27441 337
27441 27465 191
27441 27694 97
27465 27486 209
27465 27694 206
27486 27492 92
27486 27842 106
27492 27558 306
27558 27592 379
27592 27619 105
27592 27740 297
27619 27621 326
27621 27624 263
27621 1 91
27624 27408 99
27624 27761 202
27662 27438 208
27694 27712 323
27712 27492 204
27712 27842 123
27740 27619 196
27740 27761 118
27761 27767 289
27767 27662 78
27767 27465 181
27842 27866 198
27866 27558 110
27866 27621 115
31173 31178 89
31178 31173 43
31178 1 46
42570 42619 81
42619 42570 47
42619 21828 32
0 1 38
0 19951 10
0 21763 99
0 31173 34
0 42570 29