#gt5.kmer27.(800000.810000).V33.E48.mincyc7.e1.0
#construct-flow-graph.py -o graphs-g5-w10000-k27-cyc/ -g 5 -w 10000 -k 27 --mincycles 1 --nreads 5 --readlength 1000 --distribution lognormal11 --pdf
#kmersize=27
#windowsize=10000
#acyclic=False
#mincycles=1
#distribution=lognormal11
#ngenomes=5
#nreads=5
#readlength=1000
#outdir=graphs-g5-w10000-k27-cyc/
#pdf=True
#erroreps=1.0
#unique source is 0, unique sink is 1
#genomes: GCA_000005845.2_ASM584v2.fna GCA_000006665.1_ASM666v1.fna GCA_000007445.1_ASM744v1.fna GCA_000008865.2_ASM886v2.fna GCA_000009565.2_ASM956v1.fna 
# ground truth paths, in the format 'weight node1 node2 node3 ... '
#T 20 0 5794 5815 5794 5815 1 
#T 19 0 9955 11137 11164 15873 15900 18884 18911 19329 19356 19534 19561 19711 19929 1 
#T 10 0 23153 23154 23204 23208 23259 23316 23342 23154 23204 23208 23408 23259 23316 23434 23342 23154 23204 23436 23153 23154 23204 23154 23204 23436 1 
#T 6 0 29852 9955 11137 29878 11164 15873 29904 15900 18884 29930 18911 19329 29956 19356 19534 29982 19561 19711 1 
#T 16 0 1 
# subpath constraints, in the format 'node1 node2 node3 ... '
# 0 subpath constraints for genome
#S 5815 1 
#S 5815 1 
#S 0 5794 
#S 0 5794 
#S 5815 1 
# 1 subpath constraints for genome
#S 9955 11137 
#S 18911 19329 19356 19534 19561 19711 19929 
#S 11164 15873 15900 18884 
#S 15900 18884 
#S 19561 19711 19929 
# 2 subpath constraints for genome
#S 23436 1 
#S 23436 1 
#S 0 23153 
#S 0 23153 
#S 23436 1 
# 3 subpath constraints for genome
#S 11164 15873 
#S 15900 18884 29930 18911 19329 
#S 11164 15873 
#S 18911 19329 29956 19356 19534 29982 19561 19711 
#S 15900 18884 
# 4 subpath constraints for genome
#S 0 1 
#S 0 1 
#S 0 1 
#S 0 1 
#S 0 1 
48
5794 5815 44
5815 5794 22
5815 1 20
9955 11137 33
11137 11164 18
11137 29878 5
11164 15873 34
15873 15900 16
15873 29904 8
15900 18884 30
18884 18911 22
18884 29930 4
18911 19329 26
19329 19356 18
19329 29956 6
19356 19534 22
19534 19561 31
19534 29982 5
19561 19711 27
19711 1 5
19711 19929 14
19929 1 25
23153 23154 26
23154 23204 46
23204 23208 16
23204 23436 20
23204 23154 13
23208 23259 12
23208 23408 6
23259 23316 12
23316 23342 14
23316 23434 10
23342 23154 17
23408 23259 10
23434 23342 17
23436 23153 7
23436 1 12
29852 9955 7
29878 11164 1
29904 15900 5
29930 18911 10
29956 19356 6
29982 19561 4
0 9955 20
0 5794 15
0 23153 11
0 29852 5
0 1 13