#gt5.kmer27.(3560000.3570000).V33.E48.mincyc100.e1.0
#construct-flow-graph.py -o graphs-g5-w10000-k27-cyc/ -g 5 -w 10000 -k 27 --mincycles 1 --nreads 5 --readlength 1000 --distribution lognormal11 --pdf
#kmersize=27
#windowsize=10000
#acyclic=False
#mincycles=1
#distribution=lognormal11
#ngenomes=5
#nreads=5
#readlength=1000
#outdir=graphs-g5-w10000-k27-cyc/
#pdf=True
#erroreps=1.0
#unique source is 0, unique sink is 1
#genomes: GCA_000005845.2_ASM584v2.fna GCA_000006665.1_ASM666v1.fna GCA_000007445.1_ASM744v1.fna GCA_000008865.2_ASM886v2.fna GCA_000009565.2_ASM956v1.fna 
# ground truth paths, in the format 'weight node1 node2 node3 ... '
#T 29 0 1 
#T 12 0 19951 1 
#T 18 0 29926 1 
#T 10 0 39901 1 
#T 9 0 41002 41018 41032 41049 41059 41076 41082 41109 41130 41165 41166 41184 41189 41236 41246 41287 41314 41318 41346 41358 41371 41400 41474 41018 41032 41059 41076 41082 41552 41109 41130 41579 41184 41189 41651 41236 41246 41287 41677 41314 41318 41358 41371 41744 41400 41474 41002 41018 41032 41049 41076 41082 41109 41130 41579 41165 41166 41246 41287 41314 41318 41346 1 
# subpath constraints, in the format 'node1 node2 node3 ... '
# 0 subpath constraints for genome
#S 0 1 
#S 0 1 
#S 0 1 
#S 0 1 
#S 0 1 
# 1 subpath constraints for genome
#S 0 19951 
#S 0 19951 
#S 0 19951 
#S 0 19951 
#S 0 19951 
# 2 subpath constraints for genome
#S 0 29926 
#S 0 29926 
#S 0 29926 
#S 0 29926 
#S 0 29926 
# 3 subpath constraints for genome
#S 0 39901 
#S 0 39901 
#S 0 39901 
#S 0 39901 
#S 0 39901 
# 4 subpath constraints for genome
#S 41346 1 
#S 41346 41358 41371 41400 41474 41018 41032 41059 41076 41082 41552 41109 41130 41579 41184 41189 41651 41236 41246 41287 41677 41314 41318 41358 41371 41744 41400 41474 41002 41018 41032 41049 41076 41082 41109 41130 41579 41165 41166 41246 41287 41314 41318 41346 1 
#S 41346 1 
#S 41346 1 
#S 41346 1 
48
19951 1 11
29926 1 17
39901 1 15
41002 41018 21
41018 41032 39
41032 41049 14
41032 41059 9
41049 41059 12
41049 41076 7
41059 41076 15
41076 41082 38
41082 41109 23
41082 41552 9
41109 41130 25
41130 41165 13
41130 41579 16
41165 41166 12
41166 41184 7
41166 41246 10
41184 41189 14
41189 41236 5
41189 41651 8
41236 41246 20
41246 41287 33
41287 41314 16
41287 41677 5
41314 41318 24
41318 41346 15
41318 41358 9
41346 41358 8
41346 1 8
41358 41371 23
41371 41400 11
41371 41744 8
41400 41474 16
41474 41018 9
41474 41002 7
41552 41109 4
41579 41184 7
41579 41165 3
41651 41236 16
41677 41314 8
41744 41400 8
0 1 36
0 19951 10
0 29926 30
0 39901 7
0 41002 9