#gt5.kmer27.(2630000.2640000).V70.E96.mincyc100.e1.0
#construct-flow-graph.py -o graphs-g5-w10000-k27-cyc/ -g 5 -w 10000 -k 27 --mincycles 1 --nreads 5 --readlength 1000 --distribution lognormal11 --pdf
#kmersize=27
#windowsize=10000
#acyclic=False
#mincycles=1
#distribution=lognormal11
#ngenomes=5
#nreads=5
#readlength=1000
#outdir=graphs-g5-w10000-k27-cyc/
#pdf=True
#erroreps=1.0
#unique source is 0, unique sink is 1
#genomes: GCA_000005845.2_ASM584v2.fna GCA_000006665.1_ASM666v1.fna GCA_000007445.1_ASM744v1.fna GCA_000008865.2_ASM886v2.fna GCA_000009565.2_ASM956v1.fna 
# ground truth paths, in the format 'weight node1 node2 node3 ... '
#T 3 0 1 
#T 8 0 19951 1 
#T 46 0 24010 24017 24010 24017 1 
#T 15 0 33324 33332 33368 33383 33410 33476 33503 33560 33597 33620 33736 33774 33817 33848 33882 33889 33929 33943 33982 34090 34093 34150 34165 34192 34262 34298 34322 34393 34412 34473 34481 34538 34541 34568 34593 34659 34723 34750 34966 35058 35101 35237 35240 33324 33332 35316 33368 33383 35342 33410 33476 35368 33503 33560 35404 33597 33620 35519 33736 33774 35561 33817 33848 35594 33882 33889 35633 33929 33943 35671 33982 35778 34090 34093 35834 34150 34165 35860 34192 34262 35895 34298 34322 35965 34393 34412 36025 34473 34481 36081 34538 34541 36107 34568 34593 36172 34659 34723 36198 34750 34966 36289 35058 35101 36423 35237 35240 1 
#T 22 0 49094 1 
# subpath constraints, in the format 'node1 node2 node3 ... '
# 0 subpath constraints for genome
#S 0 1 
#S 0 1 
#S 0 1 
#S 0 1 
#S 0 1 
# 1 subpath constraints for genome
#S 0 19951 
#S 0 19951 
#S 0 19951 
#S 0 19951 
#S 0 19951 
# 2 subpath constraints for genome
#S 24017 1 
#S 0 24010 
#S 24017 1 
#S 24017 1 
#S 0 24010 
# 3 subpath constraints for genome
#S 0 33324 33332 33368 33383 33410 33476 33503 33560 33597 33620 33736 33774 33817 33848 33882 33889 33929 
#S 35240 1 
#S 35240 33324 33332 35316 33368 33383 35342 33410 33476 35368 33503 33560 35404 33597 33620 35519 33736 33774 35561 33817 33848 35594 33882 33889 35633 33929 33943 35671 33982 35778 34090 34093 35834 34150 34165 35860 34192 34262 35895 34298 34322 
#S 34093 35834 34150 34165 35860 34192 34262 35895 34298 34322 35965 34393 34412 36025 34473 34481 36081 34538 34541 36107 34568 34593 36172 34659 34723 36198 34750 34966 36289 35058 35101 36423 
#S 0 33324 
# 4 subpath constraints for genome
#S 0 49094 
#S 0 49094 
#S 0 49094 
#S 0 49094 
#S 0 49094 
96
19951 1 8
24010 24017 98
24017 24010 35
24017 1 46
33324 33332 19
33332 33368 19
33332 35316 13
33368 33383 29
33383 33410 16
33383 35342 11
33410 33476 29
33476 33503 15
33476 35368 15
33503 33560 28
33560 33597 19
33560 35404 12
33597 33620 31
33620 33736 15
33620 35519 25
33736 33774 21
33774 33817 8
33774 35561 15
33817 33848 27
33848 33882 13
33848 35594 14
33882 33889 24
33889 33929 17
33889 35633 16
33929 33943 31
33943 33982 23
33943 35671 16
33982 34090 22
33982 35778 24
34090 34093 30
34093 34150 9
34093 35834 12
34150 34165 30
34165 34192 17
34165 35860 16
34192 34262 28
34262 34298 11
34262 35895 12
34298 34322 33
34322 34393 15
34322 35965 17
34393 34412 39
34412 34473 15
34412 36025 13
34473 34481 39
34481 34538 12
34481 36081 19
34538 34541 26
34541 34568 17
34541 36107 14
34568 34593 24
34593 34659 21
34593 36172 20
34659 34723 29
34723 34750 11
34723 36198 16
34750 34966 33
34966 35058 13
34966 36289 15
35058 35101 22
35101 35237 8
35101 36423 21
35237 35240 21
35240 33324 13
35240 1 17
35316 33368 15
35342 33410 15
35368 33503 17
35404 33597 15
35519 33736 19
35561 33817 12
35594 33882 14
35633 33929 14
35671 33982 13
35778 34090 13
35834 34150 7
35860 34192 16
35895 34298 15
35965 34393 12
36025 34473 17
36081 34538 25
36107 34568 16
36172 34659 7
36198 34750 16
36289 35058 21
36423 35237 23
49094 1 21
0 1 4
0 19951 8
0 24010 52
0 33324 12
0 49094 24