#gt5.kmer27.(410000.420000).V25.E39.mincyc12.e1.0
#construct-flow-graph.py -o graphs-g5-w10000-k27-cyc/ -g 5 -w 10000 -k 27 --mincycles 1 --nreads 5 --readlength 1000 --distribution lognormal11 --pdf
#kmersize=27
#windowsize=10000
#acyclic=False
#mincycles=1
#distribution=lognormal11
#ngenomes=5
#nreads=5
#readlength=1000
#outdir=graphs-g5-w10000-k27-cyc/
#pdf=True
#erroreps=1.0
#unique source is 0, unique sink is 1
#genomes: GCA_000005845.2_ASM584v2.fna GCA_000006665.1_ASM666v1.fna GCA_000007445.1_ASM744v1.fna GCA_000008865.2_ASM886v2.fna GCA_000009565.2_ASM956v1.fna 
# ground truth paths, in the format 'weight node1 node2 node3 ... '
#T 173 0 1077 1088 1138 1147 1077 1088 1229 1138 1147 1 
#T 12 0 9955 9956 11027 11030 11055 11062 11068 11070 11103 11105 11030 11055 11130 11150 11162 11103 11105 11030 11055 11062 11150 11162 11027 11030 11055 11062 11068 11070 11103 11105 11030 11055 11130 11105 11030 11055 11062 11068 11070 11261 11300 11027 11030 11055 11062 11068 11070 11261 11062 11068 19590 1 
#T 48 0 1 
#T 16 0 9956 11027 11030 11055 11062 11068 11070 11103 11105 11030 11055 11130 11150 11162 11103 11105 11030 11055 11062 11150 11162 11300 11027 11030 11055 11062 11068 11070 11103 11105 11030 11055 11130 11105 11030 11055 11062 11068 11070 11261 11300 11027 11030 11055 11062 11068 11070 11261 11062 11068 19590 29585 1 
#T 12 0 39560 1 
# subpath constraints, in the format 'node1 node2 node3 ... '
# 0 subpath constraints for genome
#S 1147 1 
#S 1147 1 
#S 1147 1 
#S 0 1077 1088 1138 1147 1077 1088 1229 1138 1147 1 
#S 1147 1 
# 1 subpath constraints for genome
#S 11261 11062 
#S 11261 11062 
#S 11030 11055 11062 11068 11070 11261 11300 11027 11030 11055 11062 11068 11070 11261 11062 
#S 11261 11062 
#S 11070 11103 11105 11030 11055 11130 11105 11030 11055 11062 11068 11070 11261 11300 11027 11030 11055 11062 11068 11070 11261 11062 
# 2 subpath constraints for genome
#S 0 1 
#S 
#S 0 1 
#S 0 1 
#S 0 1 
# 3 subpath constraints for genome
#S 
#S 11261 11062 
#S 11068 19590 
#S 11261 11062 
#S 11261 11062 
# 4 subpath constraints for genome
#S 0 39560 
#S 0 39560 
#S 0 39560 
#S 0 39560 
#S 0 39560 
39
1077 1088 320
1088 1138 164
1088 1229 184
1138 1147 380
1147 1077 165
1147 1 156
1229 1138 173
9955 9956 17
9956 11027 37
11027 11030 95
11030 11055 198
11055 11062 141
11055 11130 47
11062 11068 140
11062 11150 23
11068 11070 112
11068 19590 22
11070 11103 63
11070 11261 49
11103 11105 76
11105 11030 112
11130 11150 27
11130 11105 29
11150 11162 60
11162 11103 25
11162 11027 11
11162 11300 18
11261 11300 25
11261 11062 26
11300 11027 46
19590 29585 18
19590 1 14
29585 1 24
39560 1 19
0 9955 10
0 9956 18
0 1077 163
0 1 50
0 39560 15