#gt5.kmer27.(2300000.2310000).V37.E57.mincyc23.e1.0
#construct-flow-graph.py -o graphs-g5-w10000-k27-cyc/ -g 5 -w 10000 -k 27 --mincycles 1 --nreads 5 --readlength 1000 --distribution lognormal11 --pdf
#kmersize=27
#windowsize=10000
#acyclic=False
#mincycles=1
#distribution=lognormal11
#ngenomes=5
#nreads=5
#readlength=1000
#outdir=graphs-g5-w10000-k27-cyc/
#pdf=True
#erroreps=1.0
#unique source is 0, unique sink is 1
#genomes: GCA_000005845.2_ASM584v2.fna GCA_000006665.1_ASM666v1.fna GCA_000007445.1_ASM744v1.fna GCA_000008865.2_ASM886v2.fna GCA_000009565.2_ASM956v1.fna 
# ground truth paths, in the format 'weight node1 node2 node3 ... '
#T 36 0 4401 4456 4461 4464 4476 4497 4401 4456 4461 4464 4476 4497 4527 4554 4558 4464 4476 4497 4527 4617 4554 4558 4461 4464 4476 4497 4527 4554 4558 4464 4476 4497 4527 4617 4456 4461 4464 4476 1 
#T 9 0 11577 11586 11613 11625 11661 11688 11702 11721 11613 11625 11661 11800 11688 11702 11721 11577 11586 11625 11661 11800 11688 11702 1 
#T 27 0 1 
#T 25 0 37765 37783 37810 37822 37849 37873 37882 37885 37888 37895 37810 37822 37913 37923 37765 37783 37882 37885 37888 37895 37913 37923 37976 37849 37873 37882 37885 37888 37895 37913 37923 37976 37888 38056 38059 37873 37882 37885 38056 38059 1 
#T 23 0 49181 1 
# subpath constraints, in the format 'node1 node2 node3 ... '
# 0 subpath constraints for genome
#S 4476 1 
#S 0 4401 4456 4461 4464 4476 4497 4401 4456 4461 4464 4476 
#S 0 4401 4456 4461 4464 4476 4497 4401 4456 4461 4464 4476 4497 4527 4554 4558 4464 4476 4497 4527 4617 4554 4558 4461 4464 4476 4497 4527 4554 4558 4464 
#S 0 4401 4456 4461 4464 4476 
#S 4476 1 
# 1 subpath constraints for genome
#S 11702 1 
#S 11702 1 
#S 11702 1 
#S 11702 1 
#S 11702 1 
# 2 subpath constraints for genome
#S 0 1 
#S 0 1 
#S 0 1 
#S 0 1 
#S 0 1 
# 3 subpath constraints for genome
#S 0 37765 
#S 0 37765 
#S 0 37765 
#S 0 37765 
#S 0 37765 37783 37810 37822 37849 37873 37882 37885 37888 37895 37810 37822 37913 37923 37765 37783 37882 37885 37888 37895 37913 37923 37976 37849 37873 37882 37885 37888 37895 
# 4 subpath constraints for genome
#S 0 49181 
#S 0 49181 
#S 0 49181 
#S 0 49181 
#S 0 49181 
57
4401 4456 76
4456 4461 118
4461 4464 145
4464 4476 213
4476 4497 174
4476 1 32
4497 4401 36
4497 4527 141
4527 4554 73
4527 4617 64
4554 4558 114
4558 4464 87
4558 4461 30
4617 4554 37
4617 4456 49
11577 11586 17
11586 11613 11
11586 11625 6
11613 11625 12
11625 11661 23
11661 11688 7
11661 11800 19
11688 11702 34
11702 11721 19
11702 1 8
11721 11613 11
11721 11577 9
11800 11688 18
37765 37783 44
37783 37810 26
37783 37882 25
37810 37822 50
37822 37849 24
37822 37913 22
37849 37873 51
37873 37882 78
37882 37885 110
37885 37888 68
37885 38056 27
37888 37895 72
37888 38056 19
37895 37810 31
37895 37913 52
37913 37923 70
37923 37976 38
37923 37765 30
37976 37849 26
37976 37888 26
38056 38059 51
38059 37873 29
38059 1 33
49181 1 26
0 4401 35
0 11577 16
0 1 26
0 37765 19
0 49181 30