#gt5.kmer27.(1270000.1280000).V43.E60.mincyc3.e1.0
#construct-flow-graph.py -o graphs-g5-w10000-k27-cyc/ -g 5 -w 10000 -k 27 --mincycles 1 --nreads 5 --readlength 1000 --distribution lognormal11 --pdf
#kmersize=27
#windowsize=10000
#acyclic=False
#mincycles=1
#distribution=lognormal11
#ngenomes=5
#nreads=5
#readlength=1000
#outdir=graphs-g5-w10000-k27-cyc/
#pdf=True
#erroreps=1.0
#unique source is 0, unique sink is 1
#genomes: GCA_000005845.2_ASM584v2.fna GCA_000006665.1_ASM666v1.fna GCA_000007445.1_ASM744v1.fna GCA_000008865.2_ASM886v2.fna GCA_000009565.2_ASM956v1.fna 
# ground truth paths, in the format 'weight node1 node2 node3 ... '
#T 69 0 13 24 51 61 13 24 572 51 61 1 
#T 88 0 10098 10122 10206 10269 10770 10853 10880 10961 10988 11006 11050 11059 11122 11125 11173 11217 11244 11308 11335 12607 12781 12782 1 
#T 115 0 1 
#T 111 0 32697 10098 10122 32780 10206 10269 32885 10770 10853 32911 10880 10961 32937 10988 11006 32979 11050 11059 33041 11122 11125 33088 11173 11217 33114 11244 11308 33140 11335 12607 33740 12781 12782 38205 1 
#T 52 0 43234 43295 43234 43295 1 
# subpath constraints, in the format 'node1 node2 node3 ... '
# 0 subpath constraints for genome
#S 61 1 
#S 61 1 
#S 61 1 
#S 61 1 
#S 61 1 
# 1 subpath constraints for genome
#S 12782 1 
#S 12782 1 
#S 12782 1 
#S 0 10098 10122 10206 10269 10770 10853 10880 10961 10988 11006 11050 
#S 12782 1 
# 2 subpath constraints for genome
#S 0 1 
#S 0 1 
#S 0 1 
#S 0 1 
#S 0 1 
# 3 subpath constraints for genome
#S 11335 12607 33740 12781 12782 38205 
#S 12782 38205 
#S 12782 38205 
#S 10880 10961 32937 10988 11006 32979 11050 11059 33041 11122 11125 33088 11173 11217 33114 11244 11308 33140 11335 12607 
#S 0 32697 
# 4 subpath constraints for genome
#S 0 43234 43295 43234 43295 1 
#S 0 43234 43295 43234 43295 1 
#S 43295 1 
#S 0 43234 
#S 43295 1 
60
13 24 118
24 51 70
24 572 71
51 61 141
61 13 67
61 1 67
572 51 57
10098 10122 165
10122 10206 106
10122 32780 89
10206 10269 204
10269 10770 93
10269 32885 116
10770 10853 203
10853 10880 87
10853 32911 108
10880 10961 200
10961 10988 91
10961 32937 119
10988 11006 185
11006 11050 112
11006 32979 110
11050 11059 204
11059 11122 103
11059 33041 110
11122 11125 178
11125 11173 78
11125 33088 111
11173 11217 201
11217 11244 99
11217 33114 98
11244 11308 207
11308 11335 91
11308 33140 99
11335 12607 199
12607 12781 84
12607 33740 118
12781 12782 192
12782 1 107
12782 38205 129
32697 10098 108
32780 10206 103
32885 10770 110
32911 10880 130
32937 10988 117
32979 11050 117
33041 11122 112
33088 11173 106
33114 11244 125
33140 11335 122
33740 12781 109
38205 1 104
43234 43295 109
43295 43234 46
43295 1 41
0 13 66
0 10098 82
0 1 134
0 32697 93
0 43234 55