#gt5.kmer27.(1080000.1090000).V51.E70.mincyc1.e1.0
#construct-flow-graph.py -o graphs-g5-w10000-k27-cyc/ -g 5 -w 10000 -k 27 --mincycles 1 --nreads 5 --readlength 1000 --distribution lognormal11 --pdf
#kmersize=27
#windowsize=10000
#acyclic=False
#mincycles=1
#distribution=lognormal11
#ngenomes=5
#nreads=5
#readlength=1000
#outdir=graphs-g5-w10000-k27-cyc/
#pdf=True
#erroreps=1.0
#unique source is 0, unique sink is 1
#genomes: GCA_000005845.2_ASM584v2.fna GCA_000006665.1_ASM666v1.fna GCA_000007445.1_ASM744v1.fna GCA_000008865.2_ASM886v2.fna GCA_000009565.2_ASM956v1.fna 
# ground truth paths, in the format 'weight node1 node2 node3 ... '
#T 2 0 14 32 92 98 125 137 242 350 377 404 431 437 464 467 515 521 548 560 587 590 617 1278 1305 1437 1462 1626 1662 4445 4472 5699 9976 1 
#T 15 0 18110 18131 18110 18131 1 
#T 90 0 1 
#T 35 0 39879 1 
#T 107 0 44167 14 32 44226 92 98 44252 125 137 44356 242 350 44382 377 404 44408 431 437 44434 464 467 44481 515 521 44507 548 560 44533 587 590 44559 617 1278 44585 1305 1437 44610 1462 1626 44645 1662 4445 44671 4472 5699 1 
# subpath constraints, in the format 'node1 node2 node3 ... '
# 0 subpath constraints for genome
#S 1662 4445 
#S 4472 5699 9976 
#S 1305 1437 1462 1626 1662 4445 
#S 5699 9976 
#S 5699 9976 
# 1 subpath constraints for genome
#S 0 18110 
#S 0 18110 18131 18110 18131 1 
#S 0 18110 
#S 0 18110 
#S 0 18110 
# 2 subpath constraints for genome
#S 0 1 
#S 0 1 
#S 0 1 
#S 0 1 
#S 0 1 
# 3 subpath constraints for genome
#S 0 39879 
#S 0 39879 
#S 0 39879 
#S 0 39879 
#S 0 39879 
# 4 subpath constraints for genome
#S 0 44167 14 32 44226 92 98 44252 125 137 44356 242 350 44382 377 404 44408 431 437 44434 464 467 44481 515 521 44507 548 560 44533 587 590 44559 617 1278 
#S 0 44167 14 32 44226 92 98 44252 125 137 44356 242 350 44382 377 404 44408 431 437 44434 464 467 44481 515 521 44507 548 560 44533 587 590 44559 617 1278 
#S 4472 5699 
#S 1462 1626 44645 1662 4445 
#S 350 44382 377 404 44408 431 437 44434 464 467 44481 515 521 44507 548 560 44533 587 590 44559 617 1278 44585 1305 1437 
70
14 32 119
32 92 1
32 44226 103
92 98 121
98 125 2
98 44252 103
125 137 112
137 242 3
137 44356 110
242 350 109
350 377 2
350 44382 98
377 404 124
404 431 3
404 44408 115
431 437 105
437 464 2
437 44434 97
464 467 115
467 515 2
467 44481 106
515 521 124
521 548 1
521 44507 98
548 560 119
560 587 2
560 44533 115
587 590 101
590 617 2
590 44559 106
617 1278 110
1278 1305 3
1278 44585 118
1305 1437 110
1437 1462 1
1437 44610 114
1462 1626 106
1626 1662 4
1626 44645 103
1662 4445 122
4445 4472 3
4445 44671 90
4472 5699 117
5699 1 93
5699 9976 2
9976 1 3
18110 18131 31
18131 18110 12
18131 1 15
39879 1 41
44167 14 95
44226 92 113
44252 125 111
44356 242 113
44382 377 98
44408 431 95
44434 464 111
44481 515 106
44507 548 96
44533 587 99
44559 617 123
44585 1305 102
44610 1462 101
44645 1662 109
44671 4472 97
0 14 2
0 18110 18
0 1 87
0 39879 52
0 44167 101