#gt20.kmer63.(500000.550000).V52.E84.mincyc70.e1.0
#construct-flow-graph.py -o graphs-medium20-k63-cyc/ -g 20 -w 50000 -k 63 --mincycles 1 --nreads 5 --readlength 1000 -D medium20 --png
#kmersize=63
#windowsize=50000
#acyclic=False
#mincycles=1
#distribution=lognormal-44
#ngenomes=20
#nreads=5
#readlength=1000
#outdir=graphs-medium20-k63-cyc/
#pdf=False
#png=True
#erroreps=1.0
#dataset=medium20
#abundances=None
#unique source is 0, unique sink is 1
#genomes: GCF_000005845.2_ASM584v2_genomic.fna GCF_000009045.1_ASM904v1_genomic.fna GCF_000013285.1_ASM1328v1_genomic.fna GCF_000025905.1_ASM2590v1_genomic.fna GCF_000092125.1_ASM9212v1_genomic.fna GCF_000143845.1_ASM14384v1_genomic.fna GCF_000159115.1_ASM15911v1_genomic.fna GCF_000175375.1_ASM17537v1_genomic.fna GCF_000184345.1_ASM18434v2_genomic.fna GCF_000185725.2_Segn_rugo_CDC_945_V2_genomic.fna GCF_000196035.1_ASM19603v1_genomic.fna GCF_000265425.1_ASM26542v1_genomic.fna GCF_000325705.1_ASM32570v1_genomic.fna GCF_000376705.1_ASM37670v1_genomic.fna GCF_003999335.1_ASM399933v1_genomic.fna GCF_008632635.1_ASM863263v1_genomic.fna GCF_017638885.1_ASM1763888v1_genomic.fna GCF_019704535.1_ASM1970453v1_genomic.fna GCF_019890915.1_ASM1989091v1_genomic.fna GCF_900638215.1_56553_A01_genomic.fna 
# ground truth paths, in the format 'weight node1 node2 node3 ... '
#T 49 0 1 
#T 12 0 99879 1 
#T 80 0 139162 139258 139162 139258 1 
#T 60 0 199660 1 
#T 44 0 249599 1 
#T 71 0 299538 1 
#T 59 0 349477 1 
#T 16 0 395557 395755 395557 395755 1 
#T 37 0 427563 427614 427724 427731 427563 427614 448052 427724 427731 1 
#T 135 0 499035 1 
#T 16 0 548974 1 
#T 73 0 598913 1 
#T 19 0 648852 1 
#T 159 0 698791 1 
#T 25 0 748730 1 
#T 30 0 769078 769099 1 
#T 29 0 801157 769078 769099 833322 833385 833448 834484 833322 833385 837867 833448 834484 1 
#T 11 0 897424 1 
#T 21 0 947363 1 
#T 54 0 962916 962941 963274 963283 963418 963448 963511 963527 963687 963699 963979 963982 964331 964338 962916 962941 966349 963274 963283 966483 963418 963448 966545 963511 963527 966704 963687 963699 966983 963979 963982 967331 964331 964338 1 
# subpath constraints, in the format 'node1 node2 node3 ... '
# 0 subpath constraints for genome
#S 0 1 
#S 0 1 
#S 0 1 
#S 0 1 
#S 0 1 
# 1 subpath constraints for genome
#S 0 99879 
#S 0 99879 
#S 0 99879 
#S 0 99879 
#S 0 99879 
# 2 subpath constraints for genome
#S 0 139162 
#S 0 139162 
#S 0 139162 
#S 139258 1 
#S 0 139162 
# 3 subpath constraints for genome
#S 0 199660 
#S 0 199660 
#S 0 199660 
#S 0 199660 
#S 0 199660 
# 4 subpath constraints for genome
#S 0 249599 
#S 0 249599 
#S 0 249599 
#S 0 249599 
#S 0 249599 
# 5 subpath constraints for genome
#S 0 299538 
#S 0 299538 
#S 0 299538 
#S 0 299538 
#S 0 299538 
# 6 subpath constraints for genome
#S 0 349477 
#S 0 349477 
#S 0 349477 
#S 0 349477 
#S 0 349477 
# 7 subpath constraints for genome
#S 0 395557 
#S 0 395557 
#S 0 395557 
#S 0 395557 
#S 0 395557 
# 8 subpath constraints for genome
#S 427731 427563 
#S 427731 427563 
#S 427731 427563 
#S 0 427563 
#S 0 427563 
# 9 subpath constraints for genome
#S 0 499035 
#S 0 499035 
#S 0 499035 
#S 0 499035 
#S 0 499035 
# 10 subpath constraints for genome
#S 0 548974 
#S 0 548974 
#S 0 548974 
#S 0 548974 
#S 0 548974 
# 11 subpath constraints for genome
#S 0 598913 
#S 0 598913 
#S 0 598913 
#S 0 598913 
#S 0 598913 
# 12 subpath constraints for genome
#S 0 648852 
#S 0 648852 
#S 0 648852 
#S 0 648852 
#S 0 648852 
# 13 subpath constraints for genome
#S 0 698791 
#S 0 698791 
#S 0 698791 
#S 0 698791 
#S 0 698791 
# 14 subpath constraints for genome
#S 0 748730 
#S 0 748730 
#S 0 748730 
#S 0 748730 
#S 0 748730 
# 15 subpath constraints for genome
#S 0 769078 
#S 769099 1 
#S 0 769078 
#S 769099 1 
#S 0 769078 
# 16 subpath constraints for genome
#S 769099 833322 
#S 0 801157 769078 769099 833322 
#S 769099 833322 
#S 769099 833322 
#S 769099 833322 
# 17 subpath constraints for genome
#S 0 897424 
#S 0 897424 
#S 0 897424 
#S 0 897424 
#S 0 897424 
# 18 subpath constraints for genome
#S 0 947363 
#S 0 947363 
#S 0 947363 
#S 0 947363 
#S 0 947363 
# 19 subpath constraints for genome
#S 964338 1 
#S 0 962916 
#S 964338 1 
#S 964338 1 
#S 0 962916 
84
99879 1 12
139162 139258 160
139258 139162 80
139258 1 80
199660 1 60
249599 1 44
299538 1 71
349477 1 59
395557 395755 32
395755 395557 16
395755 1 16
427563 427614 74
427614 427724 37
427614 448052 37
427724 427731 74
427731 427563 37
427731 1 37
448052 427724 37
499035 1 135
548974 1 16
598913 1 73
648852 1 19
698791 1 159
748730 1 25
769078 769099 59
769099 1 30
769099 833322 29
801157 769078 29
833322 833385 58
833385 833448 29
833385 837867 29
833448 834484 58
834484 833322 29
834484 1 29
837867 833448 29
897424 1 11
947363 1 21
962916 962941 108
962941 963274 54
962941 966349 54
963274 963283 108
963283 963418 54
963283 966483 54
963418 963448 108
963448 963511 54
963448 966545 54
963511 963527 108
963527 963687 54
963527 966704 54
963687 963699 108
963699 963979 54
963699 966983 54
963979 963982 108
963982 964331 54
963982 967331 54
964331 964338 108
964338 962916 54
964338 1 54
966349 963274 54
966483 963418 54
966545 963511 54
966704 963687 54
966983 963979 54
967331 964331 54
0 1 49
0 99879 12
0 139162 80
0 199660 60
0 249599 44
0 299538 71
0 349477 59
0 395557 16
0 427563 37
0 499035 135
0 548974 16
0 598913 73
0 648852 19
0 698791 159
0 748730 25
0 769078 30
0 801157 29
0 897424 11
0 947363 21
0 962916 54