#gt20.kmer63.(200000.250000).V48.E81.mincyc20.e1.0
#construct-flow-graph.py -o graphs-medium20-k63-cyc/ -g 20 -w 50000 -k 63 --mincycles 1 --nreads 5 --readlength 1000 -D medium20 --png
#kmersize=63
#windowsize=50000
#acyclic=False
#mincycles=1
#distribution=lognormal-44
#ngenomes=20
#nreads=5
#readlength=1000
#outdir=graphs-medium20-k63-cyc/
#pdf=False
#png=True
#erroreps=1.0
#dataset=medium20
#abundances=None
#unique source is 0, unique sink is 1
#genomes: GCF_000005845.2_ASM584v2_genomic.fna GCF_000009045.1_ASM904v1_genomic.fna GCF_000013285.1_ASM1328v1_genomic.fna GCF_000025905.1_ASM2590v1_genomic.fna GCF_000092125.1_ASM9212v1_genomic.fna GCF_000143845.1_ASM14384v1_genomic.fna GCF_000159115.1_ASM15911v1_genomic.fna GCF_000175375.1_ASM17537v1_genomic.fna GCF_000184345.1_ASM18434v2_genomic.fna GCF_000185725.2_Segn_rugo_CDC_945_V2_genomic.fna GCF_000196035.1_ASM19603v1_genomic.fna GCF_000265425.1_ASM26542v1_genomic.fna GCF_000325705.1_ASM32570v1_genomic.fna GCF_000376705.1_ASM37670v1_genomic.fna GCF_003999335.1_ASM399933v1_genomic.fna GCF_008632635.1_ASM863263v1_genomic.fna GCF_017638885.1_ASM1763888v1_genomic.fna GCF_019704535.1_ASM1970453v1_genomic.fna GCF_019890915.1_ASM1989091v1_genomic.fna GCF_900638215.1_56553_A01_genomic.fna 
# ground truth paths, in the format 'weight node1 node2 node3 ... '
#T 49 0 27656 27660 28929 28946 28929 28946 1 
#T 12 0 1 
#T 80 0 132307 132322 135458 135467 135534 135565 1 
#T 60 0 199739 1 
#T 44 0 249678 1 
#T 71 0 299617 1 
#T 59 0 345132 345151 345132 345151 1 
#T 16 0 399475 1 
#T 37 0 449414 1 
#T 135 0 499353 1 
#T 16 0 531276 531285 531348 531376 531276 531285 531540 531348 531376 536581 536905 536987 132307 132322 538598 538661 27656 27660 135458 135467 541114 135534 135565 541580 536581 536905 542619 536987 132307 132322 538598 542681 538661 27656 27660 135458 135467 541114 135534 135565 541580 1 
#T 73 0 594209 1 
#T 19 0 644148 1 
#T 159 0 652672 653209 652672 653209 1 
#T 25 0 743488 1 
#T 30 0 793427 1 
#T 29 0 793486 793645 793486 793645 793953 793956 793953 793956 1 
#T 11 0 893141 1 
#T 21 0 943080 1 
#T 54 0 952691 952701 952691 952701 1 
# subpath constraints, in the format 'node1 node2 node3 ... '
# 0 subpath constraints for genome
#S 0 27656 
#S 0 27656 
#S 27660 28929 28946 28929 
#S 28946 1 
#S 0 27656 
# 1 subpath constraints for genome
#S 0 1 
#S 0 1 
#S 0 1 
#S 0 1 
#S 0 1 
# 2 subpath constraints for genome
#S 0 132307 
#S 135565 1 
#S 0 132307 
#S 0 132307 
#S 0 132307 
# 3 subpath constraints for genome
#S 0 199739 
#S 0 199739 
#S 0 199739 
#S 0 199739 
#S 0 199739 
# 4 subpath constraints for genome
#S 0 249678 
#S 0 249678 
#S 0 249678 
#S 0 249678 
#S 0 249678 
# 5 subpath constraints for genome
#S 0 299617 
#S 0 299617 
#S 0 299617 
#S 0 299617 
#S 0 299617 
# 6 subpath constraints for genome
#S 345151 1 
#S 0 345132 
#S 0 345132 
#S 0 345132 
#S 0 345132 
# 7 subpath constraints for genome
#S 0 399475 
#S 0 399475 
#S 0 399475 
#S 0 399475 
#S 0 399475 
# 8 subpath constraints for genome
#S 0 449414 
#S 0 449414 
#S 0 449414 
#S 0 449414 
#S 0 449414 
# 9 subpath constraints for genome
#S 0 499353 
#S 0 499353 
#S 0 499353 
#S 0 499353 
#S 0 499353 
# 10 subpath constraints for genome
#S 0 531276 
#S 531376 536581 
#S 0 531276 
#S 0 531276 
#S 0 531276 
# 11 subpath constraints for genome
#S 0 594209 
#S 0 594209 
#S 0 594209 
#S 0 594209 
#S 0 594209 
# 12 subpath constraints for genome
#S 0 644148 
#S 0 644148 
#S 0 644148 
#S 0 644148 
#S 0 644148 
# 13 subpath constraints for genome
#S 653209 1 
#S 653209 1 
#S 653209 1 
#S 653209 1 
#S 653209 1 
# 14 subpath constraints for genome
#S 0 743488 
#S 0 743488 
#S 0 743488 
#S 0 743488 
#S 0 743488 
# 15 subpath constraints for genome
#S 0 793427 
#S 0 793427 
#S 0 793427 
#S 0 793427 
#S 0 793427 
# 16 subpath constraints for genome
#S 793956 1 
#S 793956 1 
#S 793956 1 
#S 793956 1 
#S 793956 1 
# 17 subpath constraints for genome
#S 0 893141 
#S 0 893141 
#S 0 893141 
#S 0 893141 
#S 0 893141 
# 18 subpath constraints for genome
#S 0 943080 
#S 0 943080 
#S 0 943080 
#S 0 943080 
#S 0 943080 
# 19 subpath constraints for genome
#S 952701 1 
#S 952701 1 
#S 0 952691 
#S 952701 1 
#S 0 952691 
81
27656 27660 81
27660 28929 49
27660 135458 32
28929 28946 98
28946 28929 49
28946 1 49
132307 132322 112
132322 135458 80
132322 538598 32
135458 135467 112
135467 135534 80
135467 541114 32
135534 135565 112
135565 1 80
135565 541580 32
199739 1 60
249678 1 44
299617 1 71
345132 345151 118
345151 345132 59
345151 1 59
399475 1 16
449414 1 37
499353 1 135
531276 531285 32
531285 531348 16
531285 531540 16
531348 531376 32
531376 531276 16
531376 536581 16
531540 531348 16
536581 536905 32
536905 536987 16
536905 542619 16
536987 132307 32
538598 538661 16
538598 542681 16
538661 27656 32
541114 135534 32
541580 536581 16
541580 1 16
542619 536987 16
542681 538661 16
594209 1 73
644148 1 19
652672 653209 318
653209 652672 159
653209 1 159
743488 1 25
793427 1 30
793486 793645 58
793645 793486 29
793645 793953 29
793953 793956 58
793956 793953 29
793956 1 29
893141 1 11
943080 1 21
952691 952701 108
952701 952691 54
952701 1 54
0 27656 49
0 1 12
0 132307 80
0 199739 60
0 249678 44
0 299617 71
0 345132 59
0 399475 16
0 449414 37
0 499353 135
0 531276 16
0 594209 73
0 644148 19
0 652672 159
0 743488 25
0 793427 30
0 793486 29
0 893141 11
0 943080 21
0 952691 54