#gt20.kmer63.(1250000.1300000).V46.E78.mincyc21.e0.75
#construct-flow-graph.py -o graphs-g20-medium20-w50000-k63-cyc-e0.75/ -g 20 -w 50000 -k 63 --mincycles 1 --nreads 5 --readlength 1000 -D medium20 -e 0.75
#kmersize=63
#windowsize=50000
#acyclic=False
#mincycles=1
#distribution=lognormal-44
#ngenomes=20
#nreads=5
#readlength=1000
#outdir=graphs-g20-medium20-w50000-k63-cyc-e0.75/
#pdf=False
#png=False
#erroreps=0.75
#dataset=medium20
#abundances=None
#unique source is 0, unique sink is 1
#genomes: GCF_000005845.2_ASM584v2_genomic.fna GCF_000009045.1_ASM904v1_genomic.fna GCF_000013285.1_ASM1328v1_genomic.fna GCF_000025905.1_ASM2590v1_genomic.fna GCF_000092125.1_ASM9212v1_genomic.fna GCF_000143845.1_ASM14384v1_genomic.fna GCF_000159115.1_ASM15911v1_genomic.fna GCF_000175375.1_ASM17537v1_genomic.fna GCF_000184345.1_ASM18434v2_genomic.fna GCF_000185725.2_Segn_rugo_CDC_945_V2_genomic.fna GCF_000196035.1_ASM19603v1_genomic.fna GCF_000265425.1_ASM26542v1_genomic.fna GCF_000325705.1_ASM32570v1_genomic.fna GCF_000376705.1_ASM37670v1_genomic.fna GCF_003999335.1_ASM399933v1_genomic.fna GCF_008632635.1_ASM863263v1_genomic.fna GCF_017638885.1_ASM1763888v1_genomic.fna GCF_019704535.1_ASM1970453v1_genomic.fna GCF_019890915.1_ASM1989091v1_genomic.fna GCF_900638215.1_56553_A01_genomic.fna 
# ground truth paths, in the format 'weight node1 node2 node3 ... '
#T 49 0 19094 19130 19252 19260 19364 19389 19614 19094 19130 19749 19252 19260 19777 19840 19364 19389 20076 19614 19094 19130 19252 19260 19777 20138 19840 19364 36413 36430 36436 36580 36413 36430 36580 36413 36430 36436 36895 36920 36895 36920 1 
#T 12 0 1 
#T 80 0 149443 1 
#T 60 0 155574 155577 155765 156950 155574 155577 160422 155765 156950 160422 1 
#T 44 0 248130 1 
#T 71 0 298069 1 
#T 59 0 348008 1 
#T 16 0 397947 1 
#T 37 0 447886 1 
#T 135 0 477632 477885 477948 478085 477632 477885 479264 477948 478085 1 
#T 16 0 547372 1 
#T 73 0 580766 580766 1 
#T 19 0 647249 1 
#T 159 0 697188 1 
#T 25 0 747127 1 
#T 30 0 797066 1 
#T 29 0 847005 1 
#T 11 0 896944 1 
#T 21 0 946883 1 
#T 54 0 996822 1 
# subpath constraints, in the format 'node1 node2 node3 ... '
# 0 subpath constraints for genome
#S 0 19094 19130 19252 19260 19364 19389 19614 19094 19130 19749 
#S 19364 19389 20076 19614 19094 19130 19252 19260 19777 20138 19840 19364 36413 
#S 19364 36413 
#S 36920 1 
#S 19364 36413 
# 1 subpath constraints for genome
#S 0 1 
#S 0 1 
#S 0 1 
#S 0 1 
#S 0 1 
# 2 subpath constraints for genome
#S 0 149443 
#S 0 149443 
#S 0 149443 
#S 0 149443 
#S 0 149443 
# 3 subpath constraints for genome
#S 155577 155765 156950 
#S 160422 1 
#S 155577 160422 
#S 156950 160422 
#S 156950 160422 
# 4 subpath constraints for genome
#S 0 248130 
#S 0 248130 
#S 0 248130 
#S 0 248130 
#S 0 248130 
# 5 subpath constraints for genome
#S 0 298069 
#S 0 298069 
#S 0 298069 
#S 0 298069 
#S 0 298069 
# 6 subpath constraints for genome
#S 0 348008 
#S 0 348008 
#S 0 348008 
#S 0 348008 
#S 0 348008 
# 7 subpath constraints for genome
#S 0 397947 
#S 0 397947 
#S 0 397947 
#S 0 397947 
#S 0 397947 
# 8 subpath constraints for genome
#S 0 447886 
#S 0 447886 
#S 0 447886 
#S 0 447886 
#S 0 447886 
# 9 subpath constraints for genome
#S 0 477632 
#S 478085 1 
#S 0 477632 
#S 478085 1 
#S 0 477632 
# 10 subpath constraints for genome
#S 0 547372 
#S 0 547372 
#S 0 547372 
#S 0 547372 
#S 0 547372 
# 11 subpath constraints for genome
#S 0 580766 
#S 0 580766 
#S 580766 580766 
#S 0 580766 
#S 0 580766 
# 12 subpath constraints for genome
#S 0 647249 
#S 0 647249 
#S 0 647249 
#S 0 647249 
#S 0 647249 
# 13 subpath constraints for genome
#S 0 697188 
#S 0 697188 
#S 0 697188 
#S 0 697188 
#S 0 697188 
# 14 subpath constraints for genome
#S 0 747127 
#S 0 747127 
#S 0 747127 
#S 0 747127 
#S 0 747127 
# 15 subpath constraints for genome
#S 0 797066 
#S 0 797066 
#S 0 797066 
#S 0 797066 
#S 0 797066 
# 16 subpath constraints for genome
#S 0 847005 
#S 0 847005 
#S 0 847005 
#S 0 847005 
#S 0 847005 
# 17 subpath constraints for genome
#S 0 896944 
#S 0 896944 
#S 0 896944 
#S 0 896944 
#S 0 896944 
# 18 subpath constraints for genome
#S 0 946883 
#S 0 946883 
#S 0 946883 
#S 0 946883 
#S 0 946883 
# 19 subpath constraints for genome
#S 0 996822 
#S 0 996822 
#S 0 996822 
#S 0 996822 
#S 0 996822 
78
19094 19130 147
19130 19252 98
19130 19749 49
19252 19260 147
19260 19364 49
19260 19777 98
19364 19389 98
19364 36413 49
19389 19614 49
19389 20076 49
19614 19094 98
19749 19252 49
19777 19840 49
19777 20138 49
19840 19364 98
20076 19614 49
20138 19840 49
36413 36430 147
36430 36436 98
36430 36580 49
36436 36580 49
36436 36895 49
36580 36413 98
36895 36920 98
36920 36895 49
36920 1 49
149443 1 80
155574 155577 120
155577 155765 60
155577 160422 60
155765 156950 120
156950 155574 60
156950 160422 60
160422 155765 60
160422 1 60
248130 1 44
298069 1 71
348008 1 59
397947 1 16
447886 1 37
477632 477885 270
477885 477948 135
477885 479264 135
477948 478085 270
478085 477632 135
478085 1 135
479264 477948 135
547372 1 16
580766 580766 73
580766 1 73
647249 1 19
697188 1 159
747127 1 25
797066 1 30
847005 1 29
896944 1 11
946883 1 21
996822 1 54
0 19094 49
0 1 12
0 149443 80
0 155574 60
0 248130 44
0 298069 71
0 348008 59
0 397947 16
0 447886 37
0 477632 135
0 547372 16
0 580766 73
0 647249 19
0 697188 159
0 747127 25
0 797066 30
0 847005 29
0 896944 11
0 946883 21
0 996822 54