#gt20.kmer63.(250000.300000).V53.E85.mincyc75.e0.75
#construct-flow-graph.py -o graphs-g20-medium20-w50000-k63-cyc-e0.75/ -g 20 -w 50000 -k 63 --mincycles 1 --nreads 5 --readlength 1000 -D medium20 -e 0.75
#kmersize=63
#windowsize=50000
#acyclic=False
#mincycles=1
#distribution=lognormal-44
#ngenomes=20
#nreads=5
#readlength=1000
#outdir=graphs-g20-medium20-w50000-k63-cyc-e0.75/
#pdf=False
#png=False
#erroreps=0.75
#dataset=medium20
#abundances=None
#unique source is 0, unique sink is 1
#genomes: GCF_000005845.2_ASM584v2_genomic.fna GCF_000009045.1_ASM904v1_genomic.fna GCF_000013285.1_ASM1328v1_genomic.fna GCF_000025905.1_ASM2590v1_genomic.fna GCF_000092125.1_ASM9212v1_genomic.fna GCF_000143845.1_ASM14384v1_genomic.fna GCF_000159115.1_ASM15911v1_genomic.fna GCF_000175375.1_ASM17537v1_genomic.fna GCF_000184345.1_ASM18434v2_genomic.fna GCF_000185725.2_Segn_rugo_CDC_945_V2_genomic.fna GCF_000196035.1_ASM19603v1_genomic.fna GCF_000265425.1_ASM26542v1_genomic.fna GCF_000325705.1_ASM32570v1_genomic.fna GCF_000376705.1_ASM37670v1_genomic.fna GCF_003999335.1_ASM399933v1_genomic.fna GCF_008632635.1_ASM863263v1_genomic.fna GCF_017638885.1_ASM1763888v1_genomic.fna GCF_019704535.1_ASM1970453v1_genomic.fna GCF_019890915.1_ASM1989091v1_genomic.fna GCF_900638215.1_56553_A01_genomic.fna 
# ground truth paths, in the format 'weight node1 node2 node3 ... '
#T 49 0 7909 7911 7974 8171 8285 8311 8416 8488 8551 8615 21588 21701 7909 7911 29225 7974 8171 29338 8285 8311 29442 8416 8488 29504 8551 8615 29506 21588 21701 40154 7909 7911 29225 7974 8171 29338 8285 8311 29442 8416 8488 29504 8551 8615 29506 1 
#T 12 0 1 
#T 80 0 148629 1 
#T 60 0 198568 1 
#T 44 0 248507 1 
#T 71 0 274770 274814 274908 274934 275164 275545 275604 275642 274770 274814 277952 274908 274934 278178 275164 275545 278235 275604 275642 1 
#T 59 0 347892 1 
#T 16 0 397831 1 
#T 37 0 447770 1 
#T 135 0 497709 1 
#T 16 0 547648 1 
#T 73 0 597587 1 
#T 19 0 647526 1 
#T 159 0 697465 1 
#T 25 0 747404 1 
#T 30 0 760245 760262 760245 760262 787504 787505 787519 787521 787504 787505 787519 787505 787519 787521 1 
#T 29 0 847231 1 
#T 11 0 897170 1 
#T 21 0 947109 1 
#T 54 0 997048 1 
# subpath constraints, in the format 'node1 node2 node3 ... '
# 0 subpath constraints for genome
#S 29506 1 
#S 8615 21588 
#S 8615 21588 
#S 8615 21588 
#S 8615 21588 
# 1 subpath constraints for genome
#S 0 1 
#S 0 1 
#S 0 1 
#S 0 1 
#S 0 1 
# 2 subpath constraints for genome
#S 0 148629 
#S 0 148629 
#S 0 148629 
#S 0 148629 
#S 0 148629 
# 3 subpath constraints for genome
#S 0 198568 
#S 0 198568 
#S 0 198568 
#S 0 198568 
#S 0 198568 
# 4 subpath constraints for genome
#S 0 248507 
#S 0 248507 
#S 0 248507 
#S 0 248507 
#S 0 248507 
# 5 subpath constraints for genome
#S 275642 1 
#S 275642 1 
#S 0 274770 
#S 275642 1 
#S 0 274770 
# 6 subpath constraints for genome
#S 0 347892 
#S 0 347892 
#S 0 347892 
#S 0 347892 
#S 0 347892 
# 7 subpath constraints for genome
#S 0 397831 
#S 0 397831 
#S 0 397831 
#S 0 397831 
#S 0 397831 
# 8 subpath constraints for genome
#S 0 447770 
#S 0 447770 
#S 0 447770 
#S 0 447770 
#S 0 447770 
# 9 subpath constraints for genome
#S 0 497709 
#S 0 497709 
#S 0 497709 
#S 0 497709 
#S 0 497709 
# 10 subpath constraints for genome
#S 0 547648 
#S 0 547648 
#S 0 547648 
#S 0 547648 
#S 0 547648 
# 11 subpath constraints for genome
#S 0 597587 
#S 0 597587 
#S 0 597587 
#S 0 597587 
#S 0 597587 
# 12 subpath constraints for genome
#S 0 647526 
#S 0 647526 
#S 0 647526 
#S 0 647526 
#S 0 647526 
# 13 subpath constraints for genome
#S 0 697465 
#S 0 697465 
#S 0 697465 
#S 0 697465 
#S 0 697465 
# 14 subpath constraints for genome
#S 0 747404 
#S 0 747404 
#S 0 747404 
#S 0 747404 
#S 0 747404 
# 15 subpath constraints for genome
#S 0 760245 
#S 787521 1 
#S 787521 1 
#S 0 760245 
#S 0 760245 
# 16 subpath constraints for genome
#S 0 847231 
#S 0 847231 
#S 0 847231 
#S 0 847231 
#S 0 847231 
# 17 subpath constraints for genome
#S 0 897170 
#S 0 897170 
#S 0 897170 
#S 0 897170 
#S 0 897170 
# 18 subpath constraints for genome
#S 0 947109 
#S 0 947109 
#S 0 947109 
#S 0 947109 
#S 0 947109 
# 19 subpath constraints for genome
#S 0 997048 
#S 0 997048 
#S 0 997048 
#S 0 997048 
#S 0 997048 
85
7909 7911 147
7911 7974 49
7911 29225 98
7974 8171 147
8171 8285 49
8171 29338 98
8285 8311 147
8311 8416 49
8311 29442 98
8416 8488 147
8488 8551 49
8488 29504 98
8551 8615 147
8615 21588 49
8615 29506 98
21588 21701 98
21701 7909 49
21701 40154 49
29225 7974 98
29338 8285 98
29442 8416 98
29504 8551 98
29506 21588 49
29506 1 49
40154 7909 49
148629 1 80
198568 1 60
248507 1 44
274770 274814 142
274814 274908 71
274814 277952 71
274908 274934 142
274934 275164 71
274934 278178 71
275164 275545 142
275545 275604 71
275545 278235 71
275604 275642 142
275642 274770 71
275642 1 71
277952 274908 71
278178 275164 71
278235 275604 71
347892 1 59
397831 1 16
447770 1 37
497709 1 135
547648 1 16
597587 1 73
647526 1 19
697465 1 159
747404 1 25
760245 760262 60
760262 760245 30
760262 787504 30
787504 787505 60
787505 787519 90
787519 787521 60
787519 787505 30
787521 787504 30
787521 1 30
847231 1 29
897170 1 11
947109 1 21
997048 1 54
0 7909 49
0 1 12
0 148629 80
0 198568 60
0 248507 44
0 274770 71
0 347892 59
0 397831 16
0 447770 37
0 497709 135
0 547648 16
0 597587 73
0 647526 19
0 697465 159
0 747404 25
0 760245 30
0 847231 29
0 897170 11
0 947109 21
0 997048 54