#gt20.kmer63.(900000.1000000).V63.E104.mincyc33.e0.75
#construct-flow-graph.py -o graphs-medium20-w100000-k63-cyc-e0.75/ -g 20 -w 100000 -k 63 --mincycles 1 --nreads 5 --readlength 1000 -D medium20 -e 0.75
#kmersize=63
#windowsize=100000
#acyclic=False
#mincycles=1
#distribution=lognormal-44
#ngenomes=20
#nreads=5
#readlength=1000
#outdir=graphs-medium20-w100000-k63-cyc-e0.75/
#pdf=False
#png=False
#erroreps=0.75
#dataset=medium20
#abundances=None
#unique source is 0, unique sink is 1
#genomes: GCF_000005845.2_ASM584v2_genomic.fna GCF_000009045.1_ASM904v1_genomic.fna GCF_000013285.1_ASM1328v1_genomic.fna GCF_000025905.1_ASM2590v1_genomic.fna GCF_000092125.1_ASM9212v1_genomic.fna GCF_000143845.1_ASM14384v1_genomic.fna GCF_000159115.1_ASM15911v1_genomic.fna GCF_000175375.1_ASM17537v1_genomic.fna GCF_000184345.1_ASM18434v2_genomic.fna GCF_000185725.2_Segn_rugo_CDC_945_V2_genomic.fna GCF_000196035.1_ASM19603v1_genomic.fna GCF_000265425.1_ASM26542v1_genomic.fna GCF_000325705.1_ASM32570v1_genomic.fna GCF_000376705.1_ASM37670v1_genomic.fna GCF_003999335.1_ASM399933v1_genomic.fna GCF_008632635.1_ASM863263v1_genomic.fna GCF_017638885.1_ASM1763888v1_genomic.fna GCF_019704535.1_ASM1970453v1_genomic.fna GCF_019890915.1_ASM1989091v1_genomic.fna GCF_900638215.1_56553_A01_genomic.fna 
# ground truth paths, in the format 'weight node1 node2 node3 ... '
#T 49 0 1 
#T 12 0 150286 150287 151728 151738 1 
#T 80 0 299818 1 
#T 60 0 392073 392149 392073 392149 392274 392292 392377 392274 392292 392379 392377 392274 392292 392379 1 
#T 44 0 499578 1 
#T 71 0 599517 1 
#T 59 0 699456 1 
#T 16 0 781816 781832 781905 781816 781832 781905 782162 781816 781832 1 
#T 37 0 844499 844505 844571 845171 845276 845283 844499 844505 849857 844571 845171 849961 845276 845283 1 
#T 135 0 925979 926075 926344 926470 926593 926608 926702 926735 926835 926839 926935 926938 926952 926979 926935 926938 926952 926979 926835 926839 925979 926075 929723 926344 926470 929839 926593 926608 929926 926702 926735 926938 926952 926979 926935 926938 926952 939531 939534 944720 944722 944720 944722 939531 939534 1 
#T 16 0 151728 151738 1098081 1 
#T 73 0 1126721 150286 150287 1 
#T 19 0 1224824 1224846 1224824 1224846 1 
#T 159 0 1397873 1 
#T 25 0 1472980 1473002 1472980 1473002 1 
#T 30 0 1516715 1518126 1516715 1518126 1 
#T 29 0 1696255 1 
#T 11 0 1796194 1 
#T 21 0 1825119 1825132 1825119 1825132 1 
#T 54 0 1996058 1 
# subpath constraints, in the format 'node1 node2 node3 ... '
# 0 subpath constraints for genome
#S 0 1 
#S 0 1 
#S 0 1 
#S 0 1 
#S 0 1 
# 1 subpath constraints for genome
#S 151738 1 
#S 0 150286 
#S 0 150286 
#S 0 150286 
#S 0 150286 
# 2 subpath constraints for genome
#S 0 299818 
#S 0 299818 
#S 0 299818 
#S 0 299818 
#S 0 299818 
# 3 subpath constraints for genome
#S 0 392073 
#S 0 392073 
#S 0 392073 
#S 0 392073 
#S 0 392073 
# 4 subpath constraints for genome
#S 0 499578 
#S 0 499578 
#S 0 499578 
#S 0 499578 
#S 0 499578 
# 5 subpath constraints for genome
#S 0 599517 
#S 0 599517 
#S 0 599517 
#S 0 599517 
#S 0 599517 
# 6 subpath constraints for genome
#S 0 699456 
#S 0 699456 
#S 0 699456 
#S 0 699456 
#S 0 699456 
# 7 subpath constraints for genome
#S 0 781816 
#S 781832 1 
#S 0 781816 
#S 0 781816 
#S 781832 1 
# 8 subpath constraints for genome
#S 845283 1 
#S 0 844499 
#S 845283 1 
#S 0 844499 
#S 0 844499 
# 9 subpath constraints for genome
#S 939534 1 
#S 944722 939531 
#S 939534 1 
#S 939534 944720 
#S 939534 944720 
# 10 subpath constraints for genome
#S 151738 1098081 
#S 151738 1098081 
#S 151738 1098081 
#S 151738 1098081 
#S 0 151728 
# 11 subpath constraints for genome
#S 150287 1 
#S 150287 1 
#S 150287 1 
#S 150287 1 
#S 150287 1 
# 12 subpath constraints for genome
#S 1224846 1 
#S 1224846 1 
#S 1224846 1 
#S 0 1224824 
#S 1224846 1 
# 13 subpath constraints for genome
#S 0 1397873 
#S 0 1397873 
#S 0 1397873 
#S 0 1397873 
#S 0 1397873 
# 14 subpath constraints for genome
#S 0 1472980 
#S 0 1472980 
#S 0 1472980 
#S 0 1472980 
#S 0 1472980 
# 15 subpath constraints for genome
#S 1518126 1 
#S 1518126 1 
#S 1518126 1516715 
#S 1518126 1516715 
#S 1518126 1 
# 16 subpath constraints for genome
#S 0 1696255 
#S 0 1696255 
#S 0 1696255 
#S 0 1696255 
#S 0 1696255 
# 17 subpath constraints for genome
#S 0 1796194 
#S 0 1796194 
#S 0 1796194 
#S 0 1796194 
#S 0 1796194 
# 18 subpath constraints for genome
#S 1825132 1 
#S 1825132 1 
#S 1825132 1 
#S 1825132 1 
#S 1825132 1 
# 19 subpath constraints for genome
#S 0 1996058 
#S 0 1996058 
#S 0 1996058 
#S 0 1996058 
#S 0 1996058 
104
150286 150287 85
150287 151728 12
150287 1 73
151728 151738 28
151738 1 12
151738 1098081 16
299818 1 80
392073 392149 120
392149 392073 60
392149 392274 60
392274 392292 180
392292 392377 60
392292 392379 120
392377 392274 120
392379 392377 60
392379 1 60
499578 1 44
599517 1 71
699456 1 59
781816 781832 48
781832 781905 32
781832 1 16
781905 781816 16
781905 782162 16
782162 781816 16
844499 844505 74
844505 844571 37
844505 849857 37
844571 845171 74
845171 845276 37
845171 849961 37
845276 845283 74
845283 844499 37
845283 1 37
849857 844571 37
849961 845276 37
925979 926075 270
926075 926344 135
926075 929723 135
926344 926470 270
926470 926593 135
926470 929839 135
926593 926608 270
926608 926702 135
926608 929926 135
926702 926735 270
926735 926835 135
926735 926938 135
926835 926839 270
926839 926935 135
926839 925979 135
926935 926938 405
926938 926952 540
926952 926979 405
926952 939531 135
926979 926935 270
926979 926835 135
929723 926344 135
929839 926593 135
929926 926702 135
939531 939534 270
939534 944720 135
939534 1 135
944720 944722 270
944722 944720 135
944722 939531 135
1098081 1 16
1126721 150286 73
1224824 1224846 38
1224846 1224824 19
1224846 1 19
1397873 1 159
1472980 1473002 50
1473002 1472980 25
1473002 1 25
1516715 1518126 60
1518126 1516715 30
1518126 1 30
1696255 1 29
1796194 1 11
1825119 1825132 42
1825132 1825119 21
1825132 1 21
1996058 1 54
0 1 49
0 150286 12
0 299818 80
0 392073 60
0 499578 44
0 599517 71
0 699456 59
0 781816 16
0 844499 37
0 925979 135
0 151728 16
0 1126721 73
0 1224824 19
0 1397873 159
0 1472980 25
0 1516715 30
0 1696255 29
0 1796194 11
0 1825119 21
0 1996058 54