#gt20.kmer63.(200000.300000).V81.E128.mincyc95.e0.75
#construct-flow-graph.py -o graphs-medium20-w100000-k63-cyc-e0.75/ -g 20 -w 100000 -k 63 --mincycles 1 --nreads 5 --readlength 1000 -D medium20 -e 0.75
#kmersize=63
#windowsize=100000
#acyclic=False
#mincycles=1
#distribution=lognormal-44
#ngenomes=20
#nreads=5
#readlength=1000
#outdir=graphs-medium20-w100000-k63-cyc-e0.75/
#pdf=False
#png=False
#erroreps=0.75
#dataset=medium20
#abundances=None
#unique source is 0, unique sink is 1
#genomes: GCF_000005845.2_ASM584v2_genomic.fna GCF_000009045.1_ASM904v1_genomic.fna GCF_000013285.1_ASM1328v1_genomic.fna GCF_000025905.1_ASM2590v1_genomic.fna GCF_000092125.1_ASM9212v1_genomic.fna GCF_000143845.1_ASM14384v1_genomic.fna GCF_000159115.1_ASM15911v1_genomic.fna GCF_000175375.1_ASM17537v1_genomic.fna GCF_000184345.1_ASM18434v2_genomic.fna GCF_000185725.2_Segn_rugo_CDC_945_V2_genomic.fna GCF_000196035.1_ASM19603v1_genomic.fna GCF_000265425.1_ASM26542v1_genomic.fna GCF_000325705.1_ASM32570v1_genomic.fna GCF_000376705.1_ASM37670v1_genomic.fna GCF_003999335.1_ASM399933v1_genomic.fna GCF_008632635.1_ASM863263v1_genomic.fna GCF_017638885.1_ASM1763888v1_genomic.fna GCF_019704535.1_ASM1970453v1_genomic.fna GCF_019890915.1_ASM1989091v1_genomic.fna GCF_900638215.1_56553_A01_genomic.fna 
# ground truth paths, in the format 'weight node1 node2 node3 ... '
#T 49 0 27656 27660 28929 28946 28929 28946 57891 57893 57956 58153 58267 58293 58398 58470 58533 58597 71570 71683 57891 57893 79207 57956 58153 79320 58267 58293 79424 58398 58470 79486 58533 58597 79488 71570 71683 90136 57891 57893 79207 57956 58153 79320 58267 58293 79424 58398 58470 79486 58533 58597 79488 1 
#T 12 0 1 
#T 80 0 231118 231133 234269 234278 234345 234376 1 
#T 60 0 398550 1 
#T 44 0 498489 1 
#T 71 0 574752 574796 574890 574916 575146 575527 575586 575624 574752 574796 577934 574890 574916 578160 575146 575527 578217 575586 575624 1 
#T 59 0 643450 643469 643450 643469 1 
#T 16 0 797793 1 
#T 37 0 897732 1 
#T 135 0 997671 1 
#T 16 0 1029594 1029603 1029666 1029694 1029594 1029603 1029858 1029666 1029694 1034899 1035223 1035305 231118 231133 1036916 1036979 27656 27660 234269 234278 1039432 234345 234376 1039898 1034899 1035223 1040937 1035305 231118 231133 1036916 1040999 1036979 27656 27660 234269 234278 1039432 234345 234376 1039898 1 
#T 73 0 1192527 1 
#T 19 0 1292466 1 
#T 159 0 1300990 1301527 1300990 1301527 1 
#T 25 0 1491806 1 
#T 30 0 1554647 1554664 1554647 1554664 1581906 1581907 1581921 1581923 1581906 1581907 1581921 1581907 1581921 1581923 1 
#T 29 0 1591753 1591912 1591753 1591912 1592220 1592223 1592220 1592223 1 
#T 11 0 1791408 1 
#T 21 0 1891347 1 
#T 54 0 1900958 1900968 1900958 1900968 1 
# subpath constraints, in the format 'node1 node2 node3 ... '
# 0 subpath constraints for genome
#S 58597 71570 
#S 28946 57891 
#S 0 27656 
#S 58597 71570 
#S 0 27656 
# 1 subpath constraints for genome
#S 0 1 
#S 0 1 
#S 0 1 
#S 0 1 
#S 0 1 
# 2 subpath constraints for genome
#S 234376 1 
#S 234376 1 
#S 234376 1 
#S 234376 1 
#S 0 231118 
# 3 subpath constraints for genome
#S 0 398550 
#S 0 398550 
#S 0 398550 
#S 0 398550 
#S 0 398550 
# 4 subpath constraints for genome
#S 0 498489 
#S 0 498489 
#S 0 498489 
#S 0 498489 
#S 0 498489 
# 5 subpath constraints for genome
#S 575624 1 
#S 0 574752 
#S 0 574752 
#S 0 574752 
#S 575624 1 
# 6 subpath constraints for genome
#S 0 643450 
#S 0 643450 
#S 643469 1 
#S 0 643450 
#S 643469 1 
# 7 subpath constraints for genome
#S 0 797793 
#S 0 797793 
#S 0 797793 
#S 0 797793 
#S 0 797793 
# 8 subpath constraints for genome
#S 0 897732 
#S 0 897732 
#S 0 897732 
#S 0 897732 
#S 0 897732 
# 9 subpath constraints for genome
#S 0 997671 
#S 0 997671 
#S 0 997671 
#S 0 997671 
#S 0 997671 
# 10 subpath constraints for genome
#S 1036979 27656 27660 234269 
#S 1039898 1 
#S 1039898 1 
#S 0 1029594 
#S 1039898 1 
# 11 subpath constraints for genome
#S 0 1192527 
#S 0 1192527 
#S 0 1192527 
#S 0 1192527 
#S 0 1192527 
# 12 subpath constraints for genome
#S 0 1292466 
#S 0 1292466 
#S 0 1292466 
#S 0 1292466 
#S 0 1292466 
# 13 subpath constraints for genome
#S 1301527 1 
#S 1301527 1 
#S 1301527 1 
#S 1301527 1 
#S 1301527 1 
# 14 subpath constraints for genome
#S 0 1491806 
#S 0 1491806 
#S 0 1491806 
#S 0 1491806 
#S 0 1491806 
# 15 subpath constraints for genome
#S 1581923 1 
#S 0 1554647 
#S 0 1554647 
#S 0 1554647 
#S 0 1554647 
# 16 subpath constraints for genome
#S 1592223 1 
#S 1592223 1 
#S 1592223 1 
#S 1592223 1 
#S 1592223 1 
# 17 subpath constraints for genome
#S 0 1791408 
#S 0 1791408 
#S 0 1791408 
#S 0 1791408 
#S 0 1791408 
# 18 subpath constraints for genome
#S 0 1891347 
#S 0 1891347 
#S 0 1891347 
#S 0 1891347 
#S 0 1891347 
# 19 subpath constraints for genome
#S 1900968 1 
#S 1900968 1 
#S 1900968 1 
#S 0 1900958 
#S 1900968 1 
128
27656 27660 81
27660 28929 49
27660 234269 32
28929 28946 98
28946 28929 49
28946 57891 49
57891 57893 147
57893 57956 49
57893 79207 98
57956 58153 147
58153 58267 49
58153 79320 98
58267 58293 147
58293 58398 49
58293 79424 98
58398 58470 147
58470 58533 49
58470 79486 98
58533 58597 147
58597 71570 49
58597 79488 98
71570 71683 98
71683 57891 49
71683 90136 49
79207 57956 98
79320 58267 98
79424 58398 98
79486 58533 98
79488 71570 49
79488 1 49
90136 57891 49
231118 231133 112
231133 234269 80
231133 1036916 32
234269 234278 112
234278 234345 80
234278 1039432 32
234345 234376 112
234376 1 80
234376 1039898 32
398550 1 60
498489 1 44
574752 574796 142
574796 574890 71
574796 577934 71
574890 574916 142
574916 575146 71
574916 578160 71
575146 575527 142
575527 575586 71
575527 578217 71
575586 575624 142
575624 574752 71
575624 1 71
577934 574890 71
578160 575146 71
578217 575586 71
643450 643469 118
643469 643450 59
643469 1 59
797793 1 16
897732 1 37
997671 1 135
1029594 1029603 32
1029603 1029666 16
1029603 1029858 16
1029666 1029694 32
1029694 1029594 16
1029694 1034899 16
1029858 1029666 16
1034899 1035223 32
1035223 1035305 16
1035223 1040937 16
1035305 231118 32
1036916 1036979 16
1036916 1040999 16
1036979 27656 32
1039432 234345 32
1039898 1034899 16
1039898 1 16
1040937 1035305 16
1040999 1036979 16
1192527 1 73
1292466 1 19
1300990 1301527 318
1301527 1300990 159
1301527 1 159
1491806 1 25
1554647 1554664 60
1554664 1554647 30
1554664 1581906 30
1581906 1581907 60
1581907 1581921 90
1581921 1581923 60
1581921 1581907 30
1581923 1581906 30
1581923 1 30
1591753 1591912 58
1591912 1591753 29
1591912 1592220 29
1592220 1592223 58
1592223 1592220 29
1592223 1 29
1791408 1 11
1891347 1 21
1900958 1900968 108
1900968 1900958 54
1900968 1 54
0 27656 49
0 1 12
0 231118 80
0 398550 60
0 498489 44
0 574752 71
0 643450 59
0 797793 16
0 897732 37
0 997671 135
0 1029594 16
0 1192527 73
0 1292466 19
0 1300990 159
0 1491806 25
0 1554647 30
0 1591753 29
0 1791408 11
0 1891347 21
0 1900958 54