#gt5.kmer27.(810000.820000).V42.E58.mincyc64.e1.0
#construct-flow-graph.py -o graphs-g5-w10000-k27-cyc/ -g 5 -w 10000 -k 27 --mincycles 1 --nreads 5 --readlength 1000 --distribution lognormal11 --pdf
#kmersize=27
#windowsize=10000
#acyclic=False
#mincycles=1
#distribution=lognormal11
#ngenomes=5
#nreads=5
#readlength=1000
#outdir=graphs-g5-w10000-k27-cyc/
#pdf=True
#erroreps=1.0
#unique source is 0, unique sink is 1
#genomes: GCA_000005845.2_ASM584v2.fna GCA_000006665.1_ASM666v1.fna GCA_000007445.1_ASM744v1.fna GCA_000008865.2_ASM886v2.fna GCA_000009565.2_ASM956v1.fna 
# ground truth paths, in the format 'weight node1 node2 node3 ... '
#T 40 0 5586 5589 1 
#T 9 0 9977 10037 10064 10090 10133 10477 10579 10606 10630 10660 10897 10924 11209 11247 11257 11284 11387 11446 11456 10477 10579 12373 10606 10630 12402 10660 10897 12428 10924 11209 12465 11247 11257 12491 11284 11387 12549 11446 11456 17904 17931 18893 18920 19173 1 
#T 4 0 1 
#T 78 0 29366 9977 10037 29392 10064 10090 29434 10133 10477 10579 10606 10630 10660 10897 12428 10924 11209 12465 11247 11257 12491 11284 11387 12549 11446 11456 17904 29460 17931 18893 29486 18920 19173 31139 1 
#T 46 0 37413 5586 5589 41110 1 
# subpath constraints, in the format 'node1 node2 node3 ... '
# 0 subpath constraints for genome
#S 5589 1 
#S 0 5586 
#S 5589 1 
#S 0 5586 
#S 5589 1 
# 1 subpath constraints for genome
#S 17931 18893 18920 19173 
#S 11456 17904 
#S 11456 17904 
#S 11456 17904 17931 18893 
#S 11456 17904 
# 2 subpath constraints for genome
#S 0 1 
#S 0 1 
#S 0 1 
#S 0 1 
#S 0 1 
# 3 subpath constraints for genome
#S 10924 11209 12465 11247 11257 12491 11284 11387 12549 11446 11456 17904 
#S 19173 31139 
#S 11456 17904 
#S 11456 17904 
#S 11456 17904 29460 17931 18893 
# 4 subpath constraints for genome
#S 5589 41110 
#S 5589 41110 
#S 0 37413 
#S 0 37413 
#S 5589 41110 
58
5586 5589 79
5589 1 34
5589 41110 41
9977 10037 86
10037 10064 6
10037 29392 80
10064 10090 89
10090 10133 7
10090 29434 88
10133 10477 74
10477 10579 95
10579 10606 107
10579 12373 12
10606 10630 104
10630 10660 76
10630 12402 5
10660 10897 86
10897 10924 4
10897 12428 92
10924 11209 101
11209 11247 9
11209 12465 72
11247 11257 101
11257 11284 10
11257 12491 86
11284 11387 107
11387 11446 9
11387 12549 75
11446 11456 94
11456 10477 5
11456 17904 81
12373 10606 9
12402 10660 13
12428 10924 87
12465 11247 80
12491 11284 87
12549 11446 91
17904 17931 5
17904 29460 83
17931 18893 82
18893 18920 10
18893 29486 97
18920 19173 79
19173 1 8
19173 31139 70
29366 9977 81
29392 10064 72
29434 10133 78
29460 17931 74
29486 18920 62
31139 1 92
37413 5586 52
41110 1 47
0 9977 13
0 5586 43
0 1 2
0 29366 68
0 37413 31