#gt5.kmer27.(930000.940000).V84.E115.mincyc4.e1.0
#construct-flow-graph.py -o graphs-g5-w10000-k27-cyc/ -g 5 -w 10000 -k 27 --mincycles 1 --nreads 5 --readlength 1000 --distribution lognormal11 --pdf
#kmersize=27
#windowsize=10000
#acyclic=False
#mincycles=1
#distribution=lognormal11
#ngenomes=5
#nreads=5
#readlength=1000
#outdir=graphs-g5-w10000-k27-cyc/
#pdf=True
#erroreps=1.0
#unique source is 0, unique sink is 1
#genomes: GCA_000005845.2_ASM584v2.fna GCA_000006665.1_ASM666v1.fna GCA_000007445.1_ASM744v1.fna GCA_000008865.2_ASM886v2.fna GCA_000009565.2_ASM956v1.fna 
# ground truth paths, in the format 'weight node1 node2 node3 ... '
#T 32 0 8 86 116 206 233 415 449 467 494 3215 3242 3258 3297 3409 3436 3507 3534 3714 3754 3801 3828 3846 3906 4164 4191 4258 4285 4452 4488 4569 4596 4606 4633 4683 4722 4887 5469 5472 5553 5559 5469 5472 5587 5553 5559 1 
#T 11 0 11616 11617 12069 12096 12191 12218 13676 13703 15401 15428 16940 16966 19940 1 
#T 20 0 1 
#T 29 0 11617 12069 29941 12096 12191 29967 12218 13676 29993 13703 15401 30019 15428 16940 30043 16966 19940 31695 1 
#T 114 0 32235 32268 32370 32391 32235 32268 32370 32431 32391 32235 32268 8 86 36588 116 206 36614 233 415 36647 449 467 36673 494 3215 36699 3242 3258 36737 3297 3409 36763 3436 3507 36789 3534 3714 36828 3754 3801 36854 3828 3846 36913 3906 4164 36939 4191 4258 36965 4285 4452 37039 4488 4569 37065 4596 4606 37091 4633 4683 37129 4722 4887 1 
# subpath constraints, in the format 'node1 node2 node3 ... '
# 0 subpath constraints for genome
#S 5559 1 
#S 5559 1 
#S 494 3215 3242 3258 3297 3409 3436 3507 3534 3714 
#S 5559 1 
#S 494 3215 
# 1 subpath constraints for genome
#S 0 11616 11617 12069 12096 12191 
#S 16966 19940 
#S 13703 15401 
#S 0 11616 11617 12069 12096 12191 12218 13676 
#S 16966 19940 
# 2 subpath constraints for genome
#S 0 1 
#S 0 1 
#S 0 1 
#S 0 1 
#S 0 1 
# 3 subpath constraints for genome
#S 16966 19940 31695 
#S 19940 31695 
#S 12218 13676 29993 13703 15401 
#S 12069 29941 12096 12191 29967 12218 13676 
#S 19940 31695 
# 4 subpath constraints for genome
#S 494 3215 
#S 32268 8 
#S 32268 8 
#S 32268 8 
#S 32268 8 
115
8 86 146
86 116 27
86 36588 103
116 206 133
206 233 25
206 36614 129
233 415 147
415 449 25
415 36647 132
449 467 142
467 494 27
467 36673 137
494 3215 152
3215 3242 28
3215 36699 97
3242 3258 169
3258 3297 41
3258 36737 112
3297 3409 155
3409 3436 22
3409 36763 119
3436 3507 146
3507 3534 28
3507 36789 107
3534 3714 142
3714 3754 39
3714 36828 128
3754 3801 131
3801 3828 36
3801 36854 108
3828 3846 142
3846 3906 39
3846 36913 122
3906 4164 123
4164 4191 36
4164 36939 112
4191 4258 140
4258 4285 34
4258 36965 116
4285 4452 159
4452 4488 23
4452 37039 118
4488 4569 165
4569 4596 34
4569 37065 106
4596 4606 164
4606 4633 22
4606 37091 108
4633 4683 139
4683 4722 35
4683 37129 103
4722 4887 143
4887 1 94
4887 5469 39
5469 5472 57
5472 5553 30
5472 5587 33
5553 5559 73
5559 5469 25
5559 1 35
5587 5553 28
11616 11617 15
11617 12069 40
12069 12096 12
12069 29941 43
12096 12191 40
12191 12218 14
12191 29967 30
12218 13676 55
13676 13703 16
13676 29993 29
13703 15401 45
15401 15428 8
15401 30019 39
15428 16940 39
16940 16966 23
16940 30043 24
16966 19940 49
19940 1 14
19940 31695 36
29941 12096 35
29967 12218 29
29993 13703 32
30019 15428 30
30043 16966 31
31695 1 29
32235 32268 389
32268 32370 225
32268 8 122
32370 32391 109
32370 32431 127
32391 32235 252
32431 32391 105
36588 116 115
36614 233 108
36647 449 130
36673 494 133
36699 3242 108
36737 3297 108
36763 3436 112
36789 3534 108
36828 3754 127
36854 3828 105
36913 3906 103
36939 4191 110
36965 4285 121
37039 4488 134
37065 4596 103
37091 4633 107
37129 4722 125
0 11617 35
0 8 32
0 11616 9
0 1 28
0 32235 115