#gt5.kmer27.(1650000.1660000).V22.E34.mincyc12.e1.0
#construct-flow-graph.py -o graphs-g5-w10000-k27-cyc/ -g 5 -w 10000 -k 27 --mincycles 1 --nreads 5 --readlength 1000 --distribution lognormal11 --pdf
#kmersize=27
#windowsize=10000
#acyclic=False
#mincycles=1
#distribution=lognormal11
#ngenomes=5
#nreads=5
#readlength=1000
#outdir=graphs-g5-w10000-k27-cyc/
#pdf=True
#erroreps=1.0
#unique source is 0, unique sink is 1
#genomes: GCA_000005845.2_ASM584v2.fna GCA_000006665.1_ASM666v1.fna GCA_000007445.1_ASM744v1.fna GCA_000008865.2_ASM886v2.fna GCA_000009565.2_ASM956v1.fna 
# ground truth paths, in the format 'weight node1 node2 node3 ... '
#T 48 0 1 
#T 63 0 14282 14296 14323 14359 14398 14407 14425 14282 14296 14323 14359 14455 14425 14282 14296 14534 14323 14359 14455 14398 14407 1 
#T 33 0 29755 1 
#T 6 0 32764 32777 32764 32777 1 
#T 3 0 43529 43532 43534 43569 43589 43616 43529 43532 43569 43589 43616 43529 43532 43569 43589 43729 43732 43616 43529 43532 43534 43729 43732 1 
# subpath constraints, in the format 'node1 node2 node3 ... '
# 0 subpath constraints for genome
#S 0 1 
#S 0 1 
#S 0 1 
#S 0 1 
#S 0 1 
# 1 subpath constraints for genome
#S 0 14282 
#S 0 14282 14296 14323 14359 14398 14407 14425 14282 14296 14323 14359 14455 14425 14282 14296 14534 14323 14359 14455 14398 14407 1 
#S 0 14282 
#S 14407 1 
#S 0 14282 
# 2 subpath constraints for genome
#S 0 29755 
#S 0 29755 
#S 0 29755 
#S 0 29755 
#S 0 29755 
# 3 subpath constraints for genome
#S 32777 32764 
#S 0 32764 
#S 32777 32764 
#S 0 32764 
#S 0 32764 
# 4 subpath constraints for genome
#S 43732 1 
#S 43732 1 
#S 43732 1 
#S 0 43529 43532 43534 43569 43589 43616 43529 43532 43569 43589 43616 43529 43532 43569 43589 43729 43732 43616 43529 43532 43534 43729 43732 1 
#S 0 43529 43532 43534 43569 43589 43616 43529 43532 43569 43589 43616 43529 43532 43569 
34
14282 14296 189
14296 14323 123
14296 14534 57
14323 14359 184
14359 14398 54
14359 14455 127
14398 14407 121
14407 14425 70
14407 1 67
14425 14282 124
14455 14425 70
14455 14398 46
14534 14323 71
29755 1 32
32764 32777 16
32777 32764 10
32777 1 6
43529 43532 8
43532 43534 5
43532 43569 8
43534 43569 6
43534 43729 3
43569 43589 10
43589 43616 8
43589 43729 2
43616 43529 10
43729 43732 7
43732 43616 3
43732 1 2
0 1 48
0 14282 60
0 29755 30
0 32764 4
0 43529 3