#gt5.kmer27.(2050000.2060000).V29.E43.mincyc100.e1.0
#construct-flow-graph.py -o graphs-g5-w10000-k27-cyc/ -g 5 -w 10000 -k 27 --mincycles 1 --nreads 5 --readlength 1000 --distribution lognormal11 --pdf
#kmersize=27
#windowsize=10000
#acyclic=False
#mincycles=1
#distribution=lognormal11
#ngenomes=5
#nreads=5
#readlength=1000
#outdir=graphs-g5-w10000-k27-cyc/
#pdf=True
#erroreps=1.0
#unique source is 0, unique sink is 1
#genomes: GCA_000005845.2_ASM584v2.fna GCA_000006665.1_ASM666v1.fna GCA_000007445.1_ASM744v1.fna GCA_000008865.2_ASM886v2.fna GCA_000009565.2_ASM956v1.fna 
# ground truth paths, in the format 'weight node1 node2 node3 ... '
#T 9 0 1 
#T 70 0 19951 1 
#T 28 0 29926 1 
#T 4 0 39901 1 
#T 46 0 41620 41632 41638 41662 41694 41721 41741 41783 41786 41813 41821 41824 41851 41859 41889 41916 41939 41662 41694 42015 41721 41741 42024 41783 41786 42082 41813 41821 41824 42108 41851 41859 42137 41889 42163 41916 41939 41620 41632 41638 41721 41741 42024 42285 41783 41786 41813 41821 41889 42163 41916 41939 41620 41632 1 
# subpath constraints, in the format 'node1 node2 node3 ... '
# 0 subpath constraints for genome
#S 0 1 
#S 0 1 
#S 0 1 
#S 0 1 
#S 0 1 
# 1 subpath constraints for genome
#S 0 19951 
#S 0 19951 
#S 0 19951 
#S 0 19951 
#S 0 19951 
# 2 subpath constraints for genome
#S 0 29926 
#S 0 29926 
#S 0 29926 
#S 0 29926 
#S 0 29926 
# 3 subpath constraints for genome
#S 0 39901 
#S 0 39901 
#S 0 39901 
#S 0 39901 
#S 0 39901 
# 4 subpath constraints for genome
#S 0 41620 
#S 41632 1 
#S 41939 41662 41694 42015 41721 41741 42024 41783 41786 42082 41813 41821 41824 42108 41851 41859 42137 41889 42163 41916 41939 41620 41632 41638 41721 41741 42024 42285 41783 41786 41813 41821 41889 42163 41916 41939 41620 41632 1 
#S 41632 1 
#S 41632 1 
43
19951 1 80
29926 1 35
39901 1 3
41620 41632 131
41632 41638 104
41632 1 49
41638 41662 46
41638 41721 52
41662 41694 77
41694 41721 43
41694 42015 45
41721 41741 149
41741 41783 54
41741 42024 92
41783 41786 151
41786 41813 109
41786 42082 57
41813 41821 142
41821 41824 117
41821 41889 41
41824 41851 35
41824 42108 36
41851 41859 98
41859 41889 48
41859 42137 36
41889 41916 43
41889 42163 91
41916 41939 142
41939 41662 36
41939 41620 77
42015 41721 52
42024 41783 60
42024 42285 50
42082 41813 41
42108 41851 59
42137 41889 44
42163 41916 74
42285 41783 51
0 1 9
0 19951 75
0 29926 34
0 39901 8
0 41620 58