#gt5.kmer27.(1280000.1290000).V30.E45.mincyc26.e1.0
#construct-flow-graph.py -o graphs-g5-w10000-k27-cyc/ -g 5 -w 10000 -k 27 --mincycles 1 --nreads 5 --readlength 1000 --distribution lognormal11 --pdf
#kmersize=27
#windowsize=10000
#acyclic=False
#mincycles=1
#distribution=lognormal11
#ngenomes=5
#nreads=5
#readlength=1000
#outdir=graphs-g5-w10000-k27-cyc/
#pdf=True
#erroreps=1.0
#unique source is 0, unique sink is 1
#genomes: GCA_000005845.2_ASM584v2.fna GCA_000006665.1_ASM666v1.fna GCA_000007445.1_ASM744v1.fna GCA_000008865.2_ASM886v2.fna GCA_000009565.2_ASM956v1.fna 
# ground truth paths, in the format 'weight node1 node2 node3 ... '
#T 13 0 6709 6762 6768 6795 6806 6833 6834 6876 6882 6709 6762 6931 6945 6833 6834 6988 6876 6882 6709 6762 6768 7023 6795 6806 6931 6945 6988 6876 6882 7073 7134 7073 7134 1 
#T 37 0 9841 9843 9847 9869 9873 9900 9916 9943 9953 9843 9847 9869 9900 9916 10063 9943 9953 10082 9841 9843 9847 9869 9873 9900 9916 9943 9953 10082 9847 9869 9873 1 
#T 184 0 1 
#T 194 0 39454 1 
#T 11 0 49429 1 
# subpath constraints, in the format 'node1 node2 node3 ... '
# 0 subpath constraints for genome
#S 0 6709 6762 6768 6795 6806 6833 6834 6876 6882 6709 6762 6931 6945 6833 6834 6988 6876 6882 6709 6762 
#S 0 6709 
#S 0 6709 
#S 0 6709 
#S 7134 7073 7134 1 
# 1 subpath constraints for genome
#S 9873 1 
#S 9873 1 
#S 9873 1 
#S 9873 1 
#S 9873 1 
# 2 subpath constraints for genome
#S 0 1 
#S 0 1 
#S 0 1 
#S 0 1 
#S 0 1 
# 3 subpath constraints for genome
#S 0 39454 
#S 0 39454 
#S 0 39454 
#S 0 39454 
#S 0 39454 
# 4 subpath constraints for genome
#S 0 49429 
#S 0 49429 
#S 0 49429 
#S 0 49429 
#S 0 49429 
45
6709 6762 53
6762 6768 19
6762 6931 17
6768 6795 12
6768 7023 12
6795 6806 25
6806 6931 14
6806 6833 17
6833 6834 26
6834 6876 10
6834 6988 5
6876 6882 37
6882 6709 23
6882 7073 12
6931 6945 31
6945 6833 21
6945 6988 20
6988 6876 23
7023 6795 16
7073 7134 20
7134 7073 6
7134 1 18
9841 9843 72
9843 9847 114
9847 9869 141
9869 9873 120
9869 9900 47
9873 9900 71
9873 1 36
9900 9916 103
9916 9943 65
9916 10063 57
9943 9953 107
9953 9843 41
9953 10082 86
10063 9943 34
10082 9841 30
10082 9847 32
39454 1 201
49429 1 12
0 6709 14
0 9841 40
0 1 171
0 39454 211
0 49429 14