#gt5.kmer27.(1120000.1130000).V116.E157.mincyc4.e1.0
#construct-flow-graph.py -o graphs-g5-w10000-k27-cyc/ -g 5 -w 10000 -k 27 --mincycles 1 --nreads 5 --readlength 1000 --distribution lognormal11 --pdf
#kmersize=27
#windowsize=10000
#acyclic=False
#mincycles=1
#distribution=lognormal11
#ngenomes=5
#nreads=5
#readlength=1000
#outdir=graphs-g5-w10000-k27-cyc/
#pdf=True
#erroreps=1.0
#unique source is 0, unique sink is 1
#genomes: GCA_000005845.2_ASM584v2.fna GCA_000006665.1_ASM666v1.fna GCA_000007445.1_ASM744v1.fna GCA_000008865.2_ASM886v2.fna GCA_000009565.2_ASM956v1.fna 
# ground truth paths, in the format 'weight node1 node2 node3 ... '
#T 4 0 2 701 728 1046 1073 1204 1228 1271 1298 1325 1587 1614 1668 1695 1718 1755 1899 1968 2031 2118 2225 2259 2388 2415 2490 2517 2686 2727 2769 2796 3068 3095 3466 3493 3502 3529 3577 3604 3754 3781 3838 3865 4069 4096 4108 4162 4180 4207 4267 4294 4519 4546 4585 4612 4627 4654 4660 4711 4744 4816 4906 4950 4966 5005 5044 5071 5101 5128 7412 9976 1 
#T 34 0 10054 10079 10106 10119 10162 10273 10054 10079 19507 10106 10119 19549 10162 10273 1 
#T 4 0 1 
#T 9 0 39749 1 
#T 32 0 42310 2 701 42336 728 1046 42362 1073 1204 42388 1228 1271 42414 1298 42440 1325 1587 42466 1614 1668 42492 1695 1718 42528 1755 1899 42596 1968 2031 42682 2118 2225 42715 2259 2388 42741 2415 2490 42767 2517 2686 42807 2727 2769 42833 2796 3068 42859 3095 3466 42885 3493 3502 42911 3529 3577 42937 3604 3754 42963 3781 3838 42989 3865 4069 43015 4096 4108 43068 4162 4180 43094 4207 4267 43120 4294 4519 43146 4546 4585 43172 4612 4627 43198 4654 4660 43248 4711 4744 43319 4816 4906 43362 4950 4966 43400 5005 5044 43426 5071 5101 43452 5128 7412 1 
# subpath constraints, in the format 'node1 node2 node3 ... '
# 0 subpath constraints for genome
#S 728 1046 1073 1204 1228 1271 1298 1325 1587 1614 1668 1695 1718 1755 1899 1968 
#S 7412 9976 
#S 3529 3577 3604 3754 3781 3838 3865 4069 4096 4108 4162 4180 4207 4267 4294 4519 4546 
#S 7412 9976 
#S 7412 9976 
# 1 subpath constraints for genome
#S 10273 10054 10079 19507 10106 10119 19549 10162 10273 
#S 10162 10273 1 
#S 10273 10054 10079 19507 10106 10119 19549 10162 10273 1 
#S 10273 10054 
#S 10273 10054 10079 19507 10106 10119 19549 10162 10273 1 
# 2 subpath constraints for genome
#S 0 1 
#S 0 1 
#S 0 1 
#S 0 1 
#S 0 1 
# 3 subpath constraints for genome
#S 0 39749 
#S 0 39749 
#S 0 39749 
#S 0 39749 
#S 0 39749 
# 4 subpath constraints for genome
#S 2517 2686 42807 2727 2769 42833 2796 3068 42859 3095 3466 42885 3493 3502 42911 3529 3577 
#S 5128 7412 
#S 1325 1587 42466 1614 1668 42492 1695 1718 42528 1755 1899 42596 1968 2031 42682 2118 2225 42715 2259 2388 
#S 5128 7412 
#S 3502 42911 3529 3577 42937 3604 3754 42963 3781 3838 42989 3865 4069 43015 4096 4108 43068 4162 4180 43094 4207 4267 43120 4294 4519 
157
2 701 27
701 728 6
701 42336 26
728 1046 32
1046 1073 7
1046 42362 33
1073 1204 41
1204 1228 1
1204 42388 31
1228 1271 28
1271 1298 3
1271 42414 31
1298 1325 2
1298 42440 36
1325 1587 24
1587 1614 1
1587 42466 39
1614 1668 39
1668 1695 2
1668 42492 27
1695 1718 47
1718 1755 5
1718 42528 39
1755 1899 42
1899 1968 5
1899 42596 35
1968 2031 36
2031 2118 1
2031 42682 39
2118 2225 38
2225 2259 8
2225 42715 28
2259 2388 31
2388 2415 5
2388 42741 27
2415 2490 38
2490 2517 2
2490 42767 32
2517 2686 28
2686 2727 6
2686 42807 32
2727 2769 31
2769 2796 3
2769 42833 32
2796 3068 38
3068 3095 4
3068 42859 38
3095 3466 24
3466 3493 3
3466 42885 33
3493 3502 38
3502 3529 2
3502 42911 32
3529 3577 35
3577 3604 5
3577 42937 24
3604 3754 47
3754 3781 5
3754 42963 31
3781 3838 43
3838 3865 6
3838 42989 41
3865 4069 41
4069 4096 4
4069 43015 36
4096 4108 28
4108 4162 5
4108 43068 35
4162 4180 40
4180 4207 8
4180 43094 42
4207 4267 35
4267 4294 5
4267 43120 34
4294 4519 46
4519 4546 4
4519 43146 30
4546 4585 36
4585 4612 1
4585 43172 34
4612 4627 41
4627 4654 1
4627 43198 27
4654 4660 38
4660 4711 5
4660 43248 32
4711 4744 40
4744 4816 8
4744 43319 30
4816 4906 40
4906 4950 3
4906 43362 29
4950 4966 40
4966 5005 5
4966 43400 31
5005 5044 50
5044 5071 3
5044 43426 30
5071 5101 33
5101 5128 6
5101 43452 43
5128 7412 31
7412 1 31
7412 9976 1
9976 1 3
10054 10079 76
10079 10106 24
10079 19507 41
10106 10119 78
10119 10162 39
10119 19549 33
10162 10273 61
10273 10054 26
10273 1 26
19507 10106 44
19549 10162 32
39749 1 8
42310 2 28
42336 728 29
42362 1073 23
42388 1228 36
42414 1298 24
42440 1325 30
42466 1614 29
42492 1695 30
42528 1755 28
42596 1968 35
42682 2118 28
42715 2259 31
42741 2415 31
42767 2517 40
42807 2727 34
42833 2796 20
42859 3095 38
42885 3493 35
42911 3529 49
42937 3604 32
42963 3781 31
42989 3865 26
43015 4096 28
43068 4162 28
43094 4207 41
43120 4294 36
43146 4546 23
43172 4612 25
43198 4654 24
43248 4711 29
43319 4816 25
43362 4950 30
43400 5005 27
43426 5071 31
43452 5128 28
0 2 4
0 10054 44
0 1 3
0 39749 6
0 42310 25