#gt5.kmer27.(370000.380000).V31.E46.mincyc8.e1.0
#construct-flow-graph.py -o graphs-g5-w10000-k27-cyc/ -g 5 -w 10000 -k 27 --mincycles 1 --nreads 5 --readlength 1000 --distribution lognormal11 --pdf
#kmersize=27
#windowsize=10000
#acyclic=False
#mincycles=1
#distribution=lognormal11
#ngenomes=5
#nreads=5
#readlength=1000
#outdir=graphs-g5-w10000-k27-cyc/
#pdf=True
#erroreps=1.0
#unique source is 0, unique sink is 1
#genomes: GCA_000005845.2_ASM584v2.fna GCA_000006665.1_ASM666v1.fna GCA_000007445.1_ASM744v1.fna GCA_000008865.2_ASM886v2.fna GCA_000009565.2_ASM956v1.fna 
# ground truth paths, in the format 'weight node1 node2 node3 ... '
#T 112 0 4923 4941 4946 4947 4988 4998 5020 4923 4941 4946 4947 5052 4988 4998 5020 4923 4941 5052 4988 4998 5020 4946 4947 5052 4988 4998 7216 7217 7220 7227 7311 7216 7217 7220 7227 1 
#T 23 0 9788 9789 12437 12456 12528 12555 12576 12603 19761 1 
#T 5 0 1 
#T 24 0 9789 12437 29755 12456 12528 29781 12555 12576 29807 12603 19761 29808 1 
#T 18 0 36280 36291 7311 7216 7217 7220 36340 36280 36291 7217 7220 36340 1 
# subpath constraints, in the format 'node1 node2 node3 ... '
# 0 subpath constraints for genome
#S 7227 1 
#S 4998 7216 7217 7220 7227 7311 7216 7217 7220 7227 1 
#S 4998 7216 
#S 0 4923 
#S 0 4923 
# 1 subpath constraints for genome
#S 12603 19761 
#S 12603 19761 
#S 12603 19761 
#S 12603 19761 
#S 9789 12437 12456 12528 12555 12576 12603 19761 
# 2 subpath constraints for genome
#S 0 1 
#S 0 1 
#S 0 1 
#S 0 1 
#S 0 1 
# 3 subpath constraints for genome
#S 12603 19761 
#S 9789 12437 
#S 9789 12437 
#S 9789 12437 
#S 9789 12437 
# 4 subpath constraints for genome
#S 0 36280 36291 7311 7216 7217 7220 36340 36280 36291 7217 7220 36340 1 
#S 0 36280 
#S 0 36280 
#S 0 36280 
#S 
46
4923 4941 354
4941 4946 219
4941 5052 108
4946 4947 355
4947 4988 124
4947 5052 213
4988 4998 430
4998 5020 316
4998 7216 114
5020 4923 223
5020 4946 92
5052 4988 314
7216 7217 260
7217 7220 258
7220 7227 212
7220 36340 46
7227 7311 100
7227 1 95
7311 7216 144
9788 9789 26
9789 12437 50
12437 12456 25
12437 29755 25
12456 12528 37
12528 12555 24
12528 29781 28
12555 12576 43
12576 12603 16
12576 29807 14
12603 19761 44
19761 29808 30
19761 1 24
29755 12456 16
29781 12555 32
29807 12603 19
29808 1 22
36280 36291 50
36291 7311 15
36291 7217 21
36340 36280 21
36340 1 19
0 9789 25
0 4923 115
0 9788 29
0 1 3
0 36280 22