#gt5.kmer27.(2730000.2740000).V22.E37.mincyc12.e1.0
#construct-flow-graph.py -o graphs-g5-w10000-k27-cyc/ -g 5 -w 10000 -k 27 --mincycles 1 --nreads 5 --readlength 1000 --distribution lognormal11 --pdf
#kmersize=27
#windowsize=10000
#acyclic=False
#mincycles=1
#distribution=lognormal11
#ngenomes=5
#nreads=5
#readlength=1000
#outdir=graphs-g5-w10000-k27-cyc/
#pdf=True
#erroreps=1.0
#unique source is 0, unique sink is 1
#genomes: GCA_000005845.2_ASM584v2.fna GCA_000006665.1_ASM666v1.fna GCA_000007445.1_ASM744v1.fna GCA_000008865.2_ASM886v2.fna GCA_000009565.2_ASM956v1.fna 
# ground truth paths, in the format 'weight node1 node2 node3 ... '
#T 63 0 1 
#T 12 0 19951 1 
#T 27 0 29926 1 
#T 36 0 39901 1 
#T 5 0 46070 46129 46130 46070 46132 46133 46190 46130 46070 46132 46133 46192 46190 46130 46070 46132 46246 46247 46302 46130 46070 46132 46303 46302 46130 46070 46132 46133 46412 46129 46130 46070 46132 46246 46412 46129 46130 46070 46132 46133 46192 46519 46190 46130 46070 46132 46303 46634 46636 46130 46070 46132 46303 46638 46634 46636 46130 46070 46132 46246 46247 46743 46302 46130 46070 46132 46303 46638 46636 46130 46070 46132 46246 1 
# subpath constraints, in the format 'node1 node2 node3 ... '
# 0 subpath constraints for genome
#S 0 1 
#S 0 1 
#S 0 1 
#S 0 1 
#S 0 1 
# 1 subpath constraints for genome
#S 0 19951 
#S 0 19951 
#S 0 19951 
#S 0 19951 
#S 0 19951 
# 2 subpath constraints for genome
#S 0 29926 
#S 0 29926 
#S 0 29926 
#S 0 29926 
#S 0 29926 
# 3 subpath constraints for genome
#S 0 39901 
#S 0 39901 
#S 0 39901 
#S 0 39901 
#S 0 39901 
# 4 subpath constraints for genome
#S 0 46070 
#S 0 46070 
#S 46246 1 
#S 0 46070 
#S 0 46070 
37
19951 1 13
29926 1 35
39901 1 33
46070 46129 5
46070 46132 55
46129 46130 10
46130 46070 56
46132 46133 17
46132 46246 23
46132 46303 10
46133 46190 3
46133 46192 9
46133 46412 7
46190 46130 15
46192 46190 8
46192 46519 4
46246 46247 11
46246 46412 5
46246 1 7
46247 46302 1
46247 46743 6
46302 46130 16
46303 46302 3
46303 46634 8
46303 46638 8
46412 46129 13
46519 46190 7
46634 46636 10
46636 46130 15
46638 46634 2
46638 46636 1
46743 46302 5
0 1 57
0 19951 10
0 29926 28
0 39901 44
0 46070 2