#gt5.kmer27.(520000.530000).V43.E60.mincyc1.e1.0
#construct-flow-graph.py -o graphs-g5-w10000-k27-cyc/ -g 5 -w 10000 -k 27 --mincycles 1 --nreads 5 --readlength 1000 --distribution lognormal11 --pdf
#kmersize=27
#windowsize=10000
#acyclic=False
#mincycles=1
#distribution=lognormal11
#ngenomes=5
#nreads=5
#readlength=1000
#outdir=graphs-g5-w10000-k27-cyc/
#pdf=True
#erroreps=1.0
#unique source is 0, unique sink is 1
#genomes: GCA_000005845.2_ASM584v2.fna GCA_000006665.1_ASM666v1.fna GCA_000007445.1_ASM744v1.fna GCA_000008865.2_ASM886v2.fna GCA_000009565.2_ASM956v1.fna 
# ground truth paths, in the format 'weight node1 node2 node3 ... '
#T 125 0 6914 6922 6914 6922 1 
#T 13 0 9968 9969 10089 10132 10242 10269 10899 10936 11326 11359 11401 11428 11575 11602 11617 11671 11698 11725 11788 11815 11877 11904 12031 15948 15975 19923 1 
#T 79 0 27814 9968 9969 10089 27856 10132 10242 27882 10269 10899 27918 10936 11326 27950 11359 11401 27976 11428 11575 28002 11602 11617 28055 11671 11698 28081 11725 11788 28107 11815 11877 28133 11904 12031 1 
#T 19 0 9969 10089 10132 10242 10269 10899 10936 11326 11359 11401 11428 11575 11602 11617 11671 11698 11725 11788 11815 11877 11904 12031 15948 28198 15975 19923 28218 1 
#T 8 0 1 
# subpath constraints, in the format 'node1 node2 node3 ... '
# 0 subpath constraints for genome
#S 0 6914 
#S 6922 1 
#S 0 6914 
#S 0 6914 
#S 0 6914 6922 6914 
# 1 subpath constraints for genome
#S 12031 15948 
#S 9969 10089 10132 10242 10269 10899 10936 11326 
#S 15975 19923 
#S 12031 15948 15975 19923 
#S 15975 19923 1 
# 2 subpath constraints for genome
#S 10936 11326 27950 11359 11401 27976 11428 11575 28002 11602 11617 28055 11671 11698 28081 11725 11788 28107 11815 11877 28133 11904 12031 1 
#S 0 27814 
#S 0 27814 9968 9969 10089 27856 10132 10242 27882 10269 10899 
#S 0 27814 
#S 0 27814 
# 3 subpath constraints for genome
#S 12031 15948 
#S 11904 12031 15948 
#S 15975 19923 
#S 15975 19923 28218 
#S 11815 11877 11904 12031 15948 
# 4 subpath constraints for genome
#S 0 1 
#S 0 1 
#S 0 1 
#S 0 1 
#S 0 1 
60
6914 6922 245
6922 6914 136
6922 1 116
9968 9969 90
9969 10089 103
10089 10132 32
10089 27856 80
10132 10242 107
10242 10269 18
10242 27882 83
10269 10899 102
10899 10936 35
10899 27918 75
10936 11326 104
11326 11359 27
11326 27950 83
11359 11401 111
11401 11428 40
11401 27976 83
11428 11575 98
11575 11602 33
11575 28002 83
11602 11617 126
11617 11671 47
11617 28055 87
11671 11698 111
11698 11725 36
11698 28081 85
11725 11788 129
11788 11815 29
11788 28107 74
11815 11877 115
11877 11904 45
11877 28133 71
11904 12031 109
12031 15948 41
12031 1 80
15948 15975 8
15948 28198 20
15975 19923 39
19923 1 18
19923 28218 17
27814 9968 86
27856 10132 74
27882 10269 62
27918 10936 90
27950 11359 88
27976 11428 80
28002 11602 80
28055 11671 73
28081 11725 87
28107 11815 92
28133 11904 83
28198 15975 16
28218 1 25
0 9968 21
0 9969 21
0 6914 129
0 27814 73
0 1 14