#gt5.kmer27.(1090000.1100000).V22.E33.mincyc6.e1.0
#construct-flow-graph.py -o graphs-g5-w10000-k27-cyc/ -g 5 -w 10000 -k 27 --mincycles 1 --nreads 5 --readlength 1000 --distribution lognormal11 --pdf
#kmersize=27
#windowsize=10000
#acyclic=False
#mincycles=1
#distribution=lognormal11
#ngenomes=5
#nreads=5
#readlength=1000
#outdir=graphs-g5-w10000-k27-cyc/
#pdf=True
#erroreps=1.0
#unique source is 0, unique sink is 1
#genomes: GCA_000005845.2_ASM584v2.fna GCA_000006665.1_ASM666v1.fna GCA_000007445.1_ASM744v1.fna GCA_000008865.2_ASM886v2.fna GCA_000009565.2_ASM956v1.fna 
# ground truth paths, in the format 'weight node1 node2 node3 ... '
#T 16 0 2 3119 3146 5478 6962 6979 7016 7041 7055 7093 7120 7133 6979 7016 7041 7055 7093 7185 7120 7133 6962 6979 7016 7041 7055 7093 7185 7120 7133 6962 6979 7016 1 
#T 8 0 1 
#T 138 0 26776 26799 26804 26871 26776 26799 26804 26871 26799 26804 1 
#T 27 0 39434 1 
#T 10 0 43711 2 3119 43737 3146 5478 7041 7055 7093 7185 7120 7133 6962 6979 7016 7041 7055 1 
# subpath constraints, in the format 'node1 node2 node3 ... '
# 0 subpath constraints for genome
#S 5478 6962 6979 7016 7041 7055 7093 7120 7133 6979 7016 7041 7055 7093 7185 7120 7133 6962 6979 7016 7041 7055 7093 7185 7120 7133 6962 6979 
#S 2 3119 
#S 7016 1 
#S 7016 1 
#S 2 3119 
# 1 subpath constraints for genome
#S 0 1 
#S 0 1 
#S 0 1 
#S 0 1 
#S 0 1 
# 2 subpath constraints for genome
#S 0 26776 
#S 26804 1 
#S 0 26776 26799 26804 26871 26776 26799 26804 26871 26799 26804 1 
#S 0 26776 26799 26804 26871 26776 26799 26804 26871 26799 26804 1 
#S 26804 1 
# 3 subpath constraints for genome
#S 0 39434 
#S 0 39434 
#S 0 39434 
#S 0 39434 
#S 0 39434 
# 4 subpath constraints for genome
#S 0 43711 2 3119 
#S 3146 5478 
#S 0 43711 2 3119 
#S 0 43711 
#S 0 43711 2 3119 
33
2 3119 36
3119 3146 14
3119 43737 11
3146 5478 29
5478 6962 20
5478 7041 6
6962 6979 55
6979 7016 66
7016 7041 58
7016 1 16
7041 7055 81
7055 1 8
7055 7093 61
7093 7120 16
7093 7185 46
7120 7133 58
7133 6979 13
7133 6962 41
7185 7120 46
26776 26799 270
26799 26804 400
26804 26871 269
26804 1 114
26871 26776 147
26871 26799 143
39434 1 23
43711 2 11
43737 3146 7
0 2 21
0 1 5
0 26776 152
0 39434 23
0 43711 13