#gt5.kmer27.(950000.960000).V36.E50.mincyc1.e1.0
#construct-flow-graph.py -o graphs-g5-w10000-k27-cyc/ -g 5 -w 10000 -k 27 --mincycles 1 --nreads 5 --readlength 1000 --distribution lognormal11 --pdf
#kmersize=27
#windowsize=10000
#acyclic=False
#mincycles=1
#distribution=lognormal11
#ngenomes=5
#nreads=5
#readlength=1000
#outdir=graphs-g5-w10000-k27-cyc/
#pdf=True
#erroreps=1.0
#unique source is 0, unique sink is 1
#genomes: GCA_000005845.2_ASM584v2.fna GCA_000006665.1_ASM666v1.fna GCA_000007445.1_ASM744v1.fna GCA_000008865.2_ASM886v2.fna GCA_000009565.2_ASM956v1.fna 
# ground truth paths, in the format 'weight node1 node2 node3 ... '
#T 22 0 2 999 1026 2680 2707 4061 4088 4788 4809 4892 9976 1 
#T 7 0 11628 11629 12378 12405 13618 13645 13879 13906 17597 17624 19951 1 
#T 14 0 24186 24187 24186 24187 1 
#T 147 0 11629 12378 29950 12405 13618 29976 13645 13879 30002 13906 17597 30028 17624 19951 31680 1 
#T 27 0 36765 2 999 36791 1026 2680 36817 2707 4061 36843 4088 4788 36862 4809 4892 1 
# subpath constraints, in the format 'node1 node2 node3 ... '
# 0 subpath constraints for genome
#S 4892 9976 
#S 2707 4061 4088 4788 
#S 2 999 1026 2680 
#S 1026 2680 2707 4061 
#S 2 999 1026 2680 
# 1 subpath constraints for genome
#S 13906 17597 17624 19951 
#S 0 11628 
#S 13906 17597 17624 19951 
#S 17624 19951 
#S 13906 17597 
# 2 subpath constraints for genome
#S 0 24186 
#S 24187 24186 24187 1 
#S 0 24186 
#S 24187 24186 24187 1 
#S 24187 1 
# 3 subpath constraints for genome
#S 19951 31680 
#S 19951 31680 
#S 17624 19951 
#S 19951 31680 
#S 13906 17597 
# 4 subpath constraints for genome
#S 0 36765 
#S 1026 2680 
#S 0 36765 
#S 0 36765 
#S 0 36765 
50
2 999 45
999 1026 17
999 36791 23
1026 2680 50
2680 2707 27
2680 36817 30
2707 4061 55
4061 4088 24
4061 36843 20
4088 4788 46
4788 4809 20
4788 36862 31
4809 4892 51
4892 1 28
4892 9976 15
9976 1 16
11628 11629 3
11629 12378 168
12378 12405 8
12378 29950 161
12405 13618 153
13618 13645 10
13618 29976 159
13645 13879 134
13879 13906 7
13879 30002 144
13906 17597 138
17597 17624 6
17597 30028 150
17624 19951 127
19951 1 7
19951 31680 153
24186 24187 27
24187 24186 13
24187 1 9
29950 12405 137
29976 13645 146
30002 13906 143
30028 17624 151
31680 1 162
36765 2 26
36791 1026 22
36817 2707 25
36843 4088 27
36862 4809 31
0 2 14
0 11629 148
0 11628 8
0 24186 9
0 36765 25