#gt5.kmer27.(1060000.1070000).V72.E98.mincyc2.e1.0
#construct-flow-graph.py -o graphs-g5-w10000-k27-cyc/ -g 5 -w 10000 -k 27 --mincycles 1 --nreads 5 --readlength 1000 --distribution lognormal11 --pdf
#kmersize=27
#windowsize=10000
#acyclic=False
#mincycles=1
#distribution=lognormal11
#ngenomes=5
#nreads=5
#readlength=1000
#outdir=graphs-g5-w10000-k27-cyc/
#pdf=True
#erroreps=1.0
#unique source is 0, unique sink is 1
#genomes: GCA_000005845.2_ASM584v2.fna GCA_000006665.1_ASM666v1.fna GCA_000007445.1_ASM744v1.fna GCA_000008865.2_ASM886v2.fna GCA_000009565.2_ASM956v1.fna 
# ground truth paths, in the format 'weight node1 node2 node3 ... '
#T 127 0 2 1004 1031 1923 1978 2001 2028 4238 4318 4373 4412 4425 4480 4487 4533 4587 4614 4699 4913 4925 4952 4976 5017 5034 5062 5099 5126 5150 5177 5240 5267 5270 5313 5317 5496 5507 5534 5578 5611 5616 5643 5701 9976 1 
#T 7 0 1 
#T 6 0 29926 1 
#T 60 0 36448 36450 36511 36513 36448 36450 36663 36511 36513 1 
#T 65 0 44177 2 1004 44203 1031 1923 44257 1978 2001 44283 2028 4238 44362 4318 4373 44400 4412 4425 44454 4480 4487 44502 4533 4587 44528 4614 4699 44741 4913 4925 44767 4952 4976 44807 5017 5034 44834 5062 5099 44860 5126 5150 44886 5177 5240 44912 5267 5270 44954 5313 5317 45122 5496 5507 45148 5534 5578 45180 5611 5616 45206 5643 5701 1 
# subpath constraints, in the format 'node1 node2 node3 ... '
# 0 subpath constraints for genome
#S 5701 9976 
#S 5701 9976 
#S 5701 9976 
#S 5701 9976 
#S 2028 4238 
# 1 subpath constraints for genome
#S 0 1 
#S 0 1 
#S 0 1 
#S 0 1 
#S 0 1 
# 2 subpath constraints for genome
#S 0 29926 
#S 0 29926 
#S 0 29926 
#S 0 29926 
#S 0 29926 
# 3 subpath constraints for genome
#S 0 36448 
#S 0 36448 36450 36511 36513 36448 36450 36663 36511 36513 1 
#S 36450 36511 36513 36448 36450 36663 36511 36513 1 
#S 0 36448 
#S 0 36448 
# 4 subpath constraints for genome
#S 2 1004 44203 1031 1923 
#S 2028 4238 
#S 5611 5616 45206 5643 5701 
#S 2028 4238 44362 4318 4373 44400 4412 4425 44454 4480 4487 44502 4533 4587 44528 4614 4699 44741 
#S 2028 4238 
98
2 1004 184
1004 1031 122
1004 44203 59
1031 1923 182
1923 1978 148
1923 44257 62
1978 2001 190
2001 2028 135
2001 44283 54
2028 4238 196
4238 4318 124
4238 44362 60
4318 4373 195
4373 4412 132
4373 44400 75
4412 4425 194
4425 4480 114
4425 44454 56
4480 4487 200
4487 4533 123
4487 44502 68
4533 4587 184
4587 4614 126
4587 44528 56
4614 4699 177
4699 4913 104
4699 44741 75
4913 4925 205
4925 4952 128
4925 44767 78
4952 4976 182
4976 5017 125
4976 44807 82
5017 5034 173
5034 5062 115
5034 44834 78
5062 5099 201
5099 5126 133
5099 44860 57
5126 5150 206
5150 5177 131
5150 44886 60
5177 5240 186
5240 5267 139
5240 44912 70
5267 5270 217
5270 5313 129
5270 44954 69
5313 5317 182
5317 5496 139
5317 45122 66
5496 5507 188
5507 5534 147
5507 45148 71
5534 5578 203
5578 5611 130
5578 45180 61
5611 5616 165
5616 5643 101
5616 45206 59
5643 5701 187
5701 1 70
5701 9976 126
9976 1 133
29926 1 3
36448 36450 129
36450 36511 61
36450 36663 56
36511 36513 130
36513 36448 56
36513 1 61
36663 36511 53
44177 2 73
44203 1031 60
44257 1978 79
44283 2028 65
44362 4318 69
44400 4412 71
44454 4480 60
44502 4533 66
44528 4614 51
44741 4913 65
44767 4952 67
44807 5017 62
44834 5062 76
44860 5126 65
44886 5177 85
44912 5267 78
44954 5313 88
45122 5496 63
45148 5534 68
45180 5611 44
45206 5643 59
0 2 121
0 1 10
0 29926 5
0 36448 60
0 44177 70