#gt5.kmer27.(590000.600000).V49.E70.mincyc100.e1.0
#construct-flow-graph.py -o graphs-g5-w10000-k27-cyc/ -g 5 -w 10000 -k 27 --mincycles 1 --nreads 5 --readlength 1000 --distribution lognormal11 --pdf
#kmersize=27
#windowsize=10000
#acyclic=False
#mincycles=1
#distribution=lognormal11
#ngenomes=5
#nreads=5
#readlength=1000
#outdir=graphs-g5-w10000-k27-cyc/
#pdf=True
#erroreps=1.0
#unique source is 0, unique sink is 1
#genomes: GCA_000005845.2_ASM584v2.fna GCA_000006665.1_ASM666v1.fna GCA_000007445.1_ASM744v1.fna GCA_000008865.2_ASM886v2.fna GCA_000009565.2_ASM956v1.fna 
# ground truth paths, in the format 'weight node1 node2 node3 ... '
#T 60 0 1 
#T 25 0 9978 9979 10535 10536 10711 10712 11481 11781 11793 12222 12249 10535 10536 12355 12356 12481 12484 11481 14197 14224 12355 12356 11781 11793 15417 15420 12481 12484 10711 10712 16149 16243 16270 16355 16382 16407 16434 16443 16470 16513 16540 15417 15420 18034 18061 18703 18730 19616 19923 1 
#T 20 0 29898 1 
#T 29 0 9979 10535 10536 10711 10712 11481 11781 11793 12222 29924 12249 10535 10536 12355 12356 12481 12484 11481 14197 29950 14224 12355 12356 11781 11793 15417 15420 12481 12484 10711 10712 16149 16243 29976 16270 16355 30002 16382 16407 30027 16149 16243 29976 16270 16355 30002 16382 16407 30027 16434 16443 30079 16470 16513 30105 16540 15417 15420 18034 30131 18061 18703 30157 18730 19616 1 
#T 12 0 40132 1 
# subpath constraints, in the format 'node1 node2 node3 ... '
# 0 subpath constraints for genome
#S 0 1 
#S 0 1 
#S 0 1 
#S 0 1 
#S 0 1 
# 1 subpath constraints for genome
#S 11481 11781 11793 12222 12249 10535 10536 12355 12356 12481 12484 11481 
#S 18730 19616 19923 
#S 15420 12481 12484 10711 10712 16149 16243 16270 16355 16382 16407 16434 16443 16470 16513 16540 15417 15420 18034 
#S 12484 11481 14197 
#S 10712 11481 11781 11793 12222 
# 2 subpath constraints for genome
#S 0 29898 
#S 0 29898 
#S 0 29898 
#S 0 29898 
#S 0 29898 
# 3 subpath constraints for genome
#S 16270 16355 30002 16382 16407 30027 16434 16443 30079 16470 16513 30105 16540 15417 15420 18034 
#S 11781 11793 12222 29924 12249 10535 10536 12355 12356 12481 12484 11481 
#S 
#S 10536 12355 12356 12481 12484 11481 14197 
#S 11793 12222 29924 12249 10535 10536 12355 12356 12481 12484 11481 
# 4 subpath constraints for genome
#S 0 40132 
#S 0 40132 
#S 0 40132 
#S 0 40132 
#S 0 40132 
70
9978 9979 15
9979 10535 51
10535 10536 107
10536 10711 57
10536 12355 58
10711 10712 90
10712 11481 35
10712 16149 53
11481 11781 68
11481 14197 61
11781 11793 100
11793 12222 54
11793 15417 58
12222 12249 26
12222 29924 24
12249 10535 51
12355 12356 120
12356 12481 48
12356 11781 54
12481 12484 72
12484 11481 41
12484 10711 49
14197 14224 24
14197 29950 32
14224 12355 54
15417 15420 119
15420 12481 54
15420 18034 60
16149 16243 99
16243 16270 24
16243 29976 52
16270 16355 96
16355 16382 30
16355 30002 55
16382 16407 79
16407 16434 21
16407 30027 54
16434 16443 58
16443 16470 25
16443 30079 23
16470 16513 39
16513 16540 25
16513 30105 24
16540 15417 49
18034 18061 19
18034 30131 28
18061 18703 58
18703 18730 22
18703 30157 42
18730 19616 41
19616 1 28
19616 19923 26
19923 1 18
29898 1 23
29924 12249 32
29950 14224 29
29976 16270 65
30002 16382 55
30027 16149 36
30027 16434 34
30079 16470 32
30105 16540 30
30131 18061 29
30157 18730 22
40132 1 8
0 9979 16
0 1 76
0 9978 28
0 29898 12
0 40132 11