#gt5.kmer27.(1150000.1160000).V136.E184.mincyc2.e1.0
#construct-flow-graph.py -o graphs-g5-w10000-k27-cyc/ -g 5 -w 10000 -k 27 --mincycles 1 --nreads 5 --readlength 1000 --distribution lognormal11 --pdf
#kmersize=27
#windowsize=10000
#acyclic=False
#mincycles=1
#distribution=lognormal11
#ngenomes=5
#nreads=5
#readlength=1000
#outdir=graphs-g5-w10000-k27-cyc/
#pdf=True
#erroreps=1.0
#unique source is 0, unique sink is 1
#genomes: GCA_000005845.2_ASM584v2.fna GCA_000006665.1_ASM666v1.fna GCA_000007445.1_ASM744v1.fna GCA_000008865.2_ASM886v2.fna GCA_000009565.2_ASM956v1.fna 
# ground truth paths, in the format 'weight node1 node2 node3 ... '
#T 16 0 2 257 302 797 824 869 896 1143 1170 2381 2426 2510 2537 2762 2789 3062 3122 3166 3200 3293 3320 3358 3385 3508 3535 3571 3598 3637 3672 3700 3733 3937 3977 4007 4034 4263 4308 4390 4417 4419 4446 4452 4530 4704 4735 4765 4803 4810 4851 4921 4968 5350 5392 5485 5512 5584 5611 5817 5844 5901 5928 5988 6031 6069 6099 6153 6180 6408 6435 6462 6519 6546 6645 6672 6907 6934 7030 7057 7099 7156 7183 7246 7273 7415 9976 1 
#T 95 0 15720 15722 15783 15785 15720 15722 15935 15783 15785 1 
#T 8 0 1 
#T 10 0 39895 1 
#T 36 0 42456 2 257 42500 302 797 42526 824 869 42552 896 1143 42578 1170 2381 42622 2426 2510 42648 2537 2762 42674 2789 3062 42733 3122 3166 42766 3200 3293 42792 3320 3358 42818 3385 3508 42844 3535 3571 42870 3598 3637 42904 3672 3700 42936 3733 3937 42975 3977 4007 43001 4034 4263 43045 4308 4390 43071 4417 4419 43097 4446 4452 43174 4530 4704 43204 4735 4765 43241 4803 4810 43281 4851 4921 43327 4968 5350 43368 5392 5485 43394 5512 5584 43420 5611 5817 43446 5844 5901 43472 5928 5988 43514 6031 6069 43543 6099 6153 43569 6180 6408 43595 6435 43621 6462 6519 43647 6546 6645 43673 6672 6907 43699 6934 7030 43725 7057 43766 7099 7156 43792 7183 7246 43818 7273 7415 1 
# subpath constraints, in the format 'node1 node2 node3 ... '
# 0 subpath constraints for genome
#S 6180 6408 6435 6462 6519 6546 6645 6672 6907 6934 7030 7057 7099 7156 7183 7246 7273 7415 
#S 3733 3937 3977 4007 4034 4263 4308 4390 4417 4419 4446 4452 4530 4704 4735 4765 4803 4810 4851 4921 
#S 4968 5350 5392 5485 5512 5584 5611 5817 5844 5901 5928 5988 6031 6069 6099 6153 6180 6408 
#S 1170 2381 2426 2510 2537 2762 
#S 7415 9976 
# 1 subpath constraints for genome
#S 15785 1 
#S 0 15720 
#S 0 15720 
#S 15785 1 
#S 0 15720 
# 2 subpath constraints for genome
#S 0 1 
#S 0 1 
#S 0 1 
#S 0 1 
#S 0 1 
# 3 subpath constraints for genome
#S 0 39895 
#S 0 39895 
#S 0 39895 
#S 0 39895 
#S 0 39895 
# 4 subpath constraints for genome
#S 0 42456 2 257 42500 302 797 
#S 4530 4704 43204 4735 4765 43241 4803 4810 43281 4851 4921 43327 4968 5350 43368 5392 5485 43394 5512 5584 43420 5611 5817 
#S 
#S 0 42456 
#S 896 1143 42578 1170 2381 
184
2 257 64
257 302 12
257 42500 41
302 797 45
797 824 10
797 42526 39
824 869 53
869 896 16
869 42552 28
896 1143 53
1143 1170 14
1143 42578 41
1170 2381 64
2381 2426 21
2381 42622 30
2426 2510 38
2510 2537 10
2510 42648 37
2537 2762 50
2762 2789 17
2762 42674 36
2789 3062 60
3062 3122 21
3062 42733 36
3122 3166 49
3166 3200 16
3166 42766 50
3200 3293 56
3293 3320 15
3293 42792 26
3320 3358 42
3358 3385 21
3358 42818 28
3385 3508 58
3508 3535 10
3508 42844 36
3535 3571 62
3571 3598 18
3571 42870 34
3598 3637 58
3637 3672 25
3637 42904 32
3672 3700 55
3700 3733 12
3700 42936 45
3733 3937 72
3937 3977 16
3937 42975 38
3977 4007 47
4007 4034 16
4007 43001 34
4034 4263 56
4263 4308 17
4263 43045 35
4308 4390 55
4390 4417 13
4390 43071 48
4417 4419 38
4419 4446 20
4419 43097 38
4446 4452 53
4452 4530 13
4452 43174 33
4530 4704 44
4704 4735 13
4704 43204 40
4735 4765 58
4765 4803 13
4765 43241 41
4803 4810 49
4810 4851 25
4810 43281 31
4851 4921 47
4921 4968 15
4921 43327 35
4968 5350 45
5350 5392 18
5350 43368 41
5392 5485 51
5485 5512 19
5485 43394 40
5512 5584 50
5584 5611 16
5584 43420 36
5611 5817 51
5817 5844 19
5817 43446 36
5844 5901 45
5901 5928 13
5901 43472 41
5928 5988 60
5988 6031 11
5988 43514 28
6031 6069 53
6069 6099 12
6069 43543 36
6099 6153 56
6153 6180 16
6153 43569 44
6180 6408 49
6408 6435 9
6408 43595 37
6435 6462 11
6435 43621 32
6462 6519 43
6519 6546 15
6519 43647 38
6546 6645 43
6645 6672 12
6645 43673 40
6672 6907 66
6907 6934 16
6907 43699 38
6934 7030 44
7030 7057 21
7030 43725 26
7057 7099 16
7057 43766 35
7099 7156 45
7156 7183 10
7156 43792 38
7183 7246 63
7246 7273 12
7246 43818 32
7273 7415 53
7415 1 41
7415 9976 15
9976 1 18
15720 15722 187
15722 15783 110
15722 15935 84
15783 15785 173
15785 15720 94
15785 1 101
15935 15783 100
39895 1 11
42456 2 33
42500 302 39
42526 824 36
42552 896 36
42578 1170 37
42622 2426 41
42648 2537 41
42674 2789 23
42733 3122 32
42766 3200 29
42792 3320 38
42818 3385 33
42844 3535 48
42870 3598 37
42904 3672 39
42936 3733 55
42975 3977 34
43001 4034 41
43045 4308 36
43071 4417 34
43097 4446 34
43174 4530 37
43204 4735 38
43241 4803 42
43281 4851 32
43327 4968 43
43368 5392 35
43394 5512 26
43420 5611 40
43446 5844 37
43472 5928 34
43514 6031 29
43543 6099 34
43569 6180 45
43595 6435 38
43621 6462 32
43647 6546 31
43673 6672 37
43699 6934 37
43725 7057 35
43766 7099 38
43792 7183 39
43818 7273 39
0 2 18
0 15720 84
0 1 8
0 39895 15
0 42456 37