#gt5.kmer27.(720000.730000).V31.E45.mincyc6.e1.0
#construct-flow-graph.py -o graphs-g5-w10000-k27-cyc/ -g 5 -w 10000 -k 27 --mincycles 1 --nreads 5 --readlength 1000 --distribution lognormal11 --pdf
#kmersize=27
#windowsize=10000
#acyclic=False
#mincycles=1
#distribution=lognormal11
#ngenomes=5
#nreads=5
#readlength=1000
#outdir=graphs-g5-w10000-k27-cyc/
#pdf=True
#erroreps=1.0
#unique source is 0, unique sink is 1
#genomes: GCA_000005845.2_ASM584v2.fna GCA_000006665.1_ASM666v1.fna GCA_000007445.1_ASM744v1.fna GCA_000008865.2_ASM886v2.fna GCA_000009565.2_ASM956v1.fna 
# ground truth paths, in the format 'weight node1 node2 node3 ... '
#T 60 0 1 
#T 45 0 9977 12458 12485 15843 15870 16424 16451 18781 18808 19732 19951 1 
#T 35 0 29253 29299 29302 29303 29304 29253 29299 29302 29303 29304 29436 29480 29527 29299 29302 29303 29527 29299 29302 29436 29480 1 
#T 24 0 29992 9977 12458 30018 12485 15843 30044 15870 16424 30070 16451 18781 30096 18808 19732 1 
#T 15 0 31499 31503 31530 31539 31499 31503 31615 31530 31539 1 
# subpath constraints, in the format 'node1 node2 node3 ... '
# 0 subpath constraints for genome
#S 0 1 
#S 0 1 
#S 0 1 
#S 0 1 
#S 0 1 
# 1 subpath constraints for genome
#S 12485 15843 
#S 12485 15843 15870 16424 
#S 16451 18781 
#S 15870 16424 16451 18781 
#S 9977 12458 
# 2 subpath constraints for genome
#S 0 29253 
#S 0 29253 
#S 0 29253 
#S 0 29253 
#S 0 29253 
# 3 subpath constraints for genome
#S 9977 12458 30018 12485 15843 
#S 12485 15843 30044 15870 16424 
#S 18808 19732 
#S 16451 18781 30096 18808 19732 
#S 16451 18781 
# 4 subpath constraints for genome
#S 31539 1 
#S 31539 1 
#S 31539 1 
#S 31539 1 
#S 31539 1 
45
9977 12458 65
12458 12485 45
12458 30018 24
12485 15843 68
15843 15870 47
15843 30044 14
15870 16424 64
16424 16451 47
16424 30070 13
16451 18781 56
18781 18808 55
18781 30096 27
18808 19732 74
19732 1 20
19732 19951 49
19951 1 44
29253 29299 54
29299 29302 136
29302 29303 99
29302 29436 35
29303 29304 68
29303 29527 31
29304 29253 24
29304 29436 28
29436 29480 69
29480 1 36
29480 29527 33
29527 29299 71
29992 9977 23
30018 12485 19
30044 15870 31
30070 16451 34
30096 18808 24
31499 31503 35
31503 31530 16
31503 31615 17
31530 31539 40
31539 31499 12
31539 1 10
31615 31530 14
0 9977 30
0 1 52
0 29253 32
0 29992 26
0 31499 15