#gt5.kmer27.(1040000.1050000).V69.E94.mincyc1.e1.0
#construct-flow-graph.py -o graphs-g5-w10000-k27-cyc/ -g 5 -w 10000 -k 27 --mincycles 1 --nreads 5 --readlength 1000 --distribution lognormal11 --pdf
#kmersize=27
#windowsize=10000
#acyclic=False
#mincycles=1
#distribution=lognormal11
#ngenomes=5
#nreads=5
#readlength=1000
#outdir=graphs-g5-w10000-k27-cyc/
#pdf=True
#erroreps=1.0
#unique source is 0, unique sink is 1
#genomes: GCA_000005845.2_ASM584v2.fna GCA_000006665.1_ASM666v1.fna GCA_000007445.1_ASM744v1.fna GCA_000008865.2_ASM886v2.fna GCA_000009565.2_ASM956v1.fna 
# ground truth paths, in the format 'weight node1 node2 node3 ... '
#T 208 0 2 1473 1513 1548 1584 2584 2611 3058 3109 3331 3358 3694 3721 3793 3820 3850 3877 3964 4015 4027 4054 4191 4218 4298 4325 4361 4388 4493 4520 4556 4583 4747 4774 4893 9976 1 
#T 24 0 11635 11636 11821 11848 13643 13670 17780 17811 19951 1 
#T 20 0 23991 23992 23991 23992 1 
#T 35 0 11636 11821 29950 11848 13643 29976 13670 17780 30006 17811 19951 31665 1 
#T 137 0 36748 2 1473 36787 1513 1548 36822 1584 2584 36848 2611 3058 36898 3109 3331 36924 3358 3694 36950 3721 3793 36976 3820 3850 37002 3877 3964 37052 4015 4027 37078 4054 4191 37104 4218 4298 37130 4325 4361 37156 4388 4493 37182 4520 4556 37208 4583 4747 37234 4774 4893 1 
# subpath constraints, in the format 'node1 node2 node3 ... '
# 0 subpath constraints for genome
#S 4893 9976 
#S 1584 2584 2611 3058 
#S 1584 2584 2611 3058 3109 3331 3358 3694 
#S 4583 4747 4774 4893 9976 
#S 2 1473 
# 1 subpath constraints for genome
#S 13670 17780 17811 19951 
#S 13670 17780 
#S 17811 19951 
#S 13670 17780 
#S 13670 17780 17811 19951 
# 2 subpath constraints for genome
#S 0 23991 
#S 23992 1 
#S 0 23991 
#S 23992 1 
#S 23992 1 
# 3 subpath constraints for genome
#S 11848 13643 29976 13670 17780 
#S 13670 17780 
#S 13670 17780 
#S 13670 17780 
#S 13670 17780 
# 4 subpath constraints for genome
#S 0 36748 2 1473 
#S 0 36748 2 1473 
#S 0 36748 
#S 0 36748 2 1473 
#S 0 36748 
94
2 1473 340
1473 1513 201
1473 36787 137
1513 1548 337
1548 1584 211
1548 36822 148
1584 2584 344
2584 2611 200
2584 36848 113
2611 3058 334
3058 3109 219
3058 36898 129
3109 3331 356
3331 3358 195
3331 36924 160
3358 3694 314
3694 3721 197
3694 36950 126
3721 3793 362
3793 3820 219
3793 36976 121
3820 3850 336
3850 3877 217
3850 37002 128
3877 3964 327
3964 4015 183
3964 37052 148
4015 4027 348
4027 4054 214
4027 37078 158
4054 4191 338
4191 4218 202
4191 37104 137
4218 4298 334
4298 4325 239
4298 37130 129
4325 4361 348
4361 4388 201
4361 37156 130
4388 4493 345
4493 4520 199
4493 37182 133
4520 4556 341
4556 4583 183
4556 37208 128
4583 4747 341
4747 4774 214
4747 37234 143
4774 4893 352
4893 1 139
4893 9976 208
9976 1 215
11635 11636 22
11636 11821 64
11821 11848 30
11821 29950 35
11848 13643 53
13643 13670 24
13643 29976 24
13670 17780 58
17780 17811 20
17780 30006 36
17811 19951 68
19951 1 20
19951 31665 35
23991 23992 35
23992 23991 20
23992 1 17
29950 11848 23
29976 13670 33
30006 17811 33
31665 1 52
36748 2 126
36787 1513 125
36822 1584 121
36848 2611 152
36898 3109 120
36924 3358 145
36950 3721 145
36976 3820 130
37002 3877 145
37052 4015 137
37078 4054 131
37104 4218 150
37130 4325 140
37156 4388 137
37182 4520 132
37208 4583 126
37234 4774 135
0 2 190
0 11636 32
0 11635 23
0 23991 21
0 36748 137